108
#Comment!
LJ  -0.24921846952050405   0.33622364395734866   0.16385958748477156
LJ  0.26490905005471838   -0.32580714896592783   -0.28217967165834751
LJ  0.17399939182726773   -0.16944372699821122   -0.016525491165094899
LJ  0.32425520483743686   0.0085698934538010682   -0.36289449098543924
LJ  -0.47115904227839206   -0.4112620989783386   0.0090988928164721945
LJ  -0.25486970907893802   0.47818005824355719   0.19215121071532015
LJ  0.33527723042204827   0.46817240160971796   -0.30391052555786041
LJ  -0.27228168961168231   0.007539206570099064   -0.33858703002824725
LJ  0.00082553891031174711   0.11923178263983356   -0.36226465113024631
LJ  -0.18942419461659657   0.22292140958697762   0.13376723430064977
LJ  -0.080033181808060863   -0.022044593719619646   0.37998986889910547
LJ  0.14272525382903289   -0.34830204294740258   0.45714595632610128
LJ  -0.38901761418419539   -0.18935562669447895   0.40113356082736618
LJ  0.13107276164685699   0.14812713570456221   -0.05296461987025055
LJ  0.34103042502629116   0.46013612695998712   -0.13029253667143512
LJ  0.065900114054199085   0.20636774811535613   0.49862750347727441
LJ  0.14926042060860442   -0.14805890400714061   -0.38910250361858456
LJ  0.39114554186245643   0.16968190175346598   -0.3408302651233811
LJ  0.17216927040641936   -0.25635251813405036   0.40916988398180032
LJ  0.10099564376694266   -0.24147353173324249   0.4415460264313415
LJ  -0.27145965012346496   -0.39905605199396182   -0.32294592447862541
LJ  -0.12923068390485565   -0.3926341116006889   0.19750362468034538
LJ  -0.22371323072418792   -0.019007489998069508   0.25522038381445
LJ  -0.30636161656826377   0.19026781484680053   0.37145917184791299
LJ  -0.21683434933764553   -0.14324896362883635   -0.21330212079604449
LJ  -0.41700914311819698   0.1761746205976355   0.48308217166129036
LJ  0.12442308902788096   -0.0003941572785083285   0.19574050067815771
LJ  0.38757259417725531   -0.4645718844099534   -0.17530948123441847
LJ  -0.44087890286713804   -0.088141181228313631   -0.041172927086879529
LJ  -0.38121401169420893   -0.11701810607544658   0.46710834335391854
LJ  0.12365188103487219   0.45460791452466198   -0.036957739553431006
LJ  -0.029362696674666379   -0.37387550539720238   0.4554760087821359
LJ  -0.32496885895930061   -0.035686477106947299   0.31978775511588592
LJ  -0.091421839713585404   -0.489036316953881   -0.37191948139812275
LJ  0.097261289191786574   0.22368586986125058   -0.1031213472633071
LJ  -0.078575617420069008   0.39545016225599317   0.23996222868904812
LJ  -0.45218023856997164   0.47558725780121908   0.38084973933495986
LJ  -0.24528338129402236   0.1157517298167096   0.10325150256747333
LJ  0.03554552152400102   0.10448514950259884   0.35436113062595875
LJ  0.38733201590475175   -0.35235136508634912   -0.2932865670897235
LJ  0.44112779388906703   -0.35055747983617525   0.23814684837524638
LJ  0.26892190897306023   -0.25582454150719802   0.021113792158152539
LJ  -0.41363077640322515   -0.48217227004503027   -0.37052558874121955
LJ  -0.19626709440403192   -0.37616246183943075   -0.25521118429920259
LJ  0.16194535031494192   -0.41353287656018445   0.15244596197186713
LJ  -0.24960740372548332   -0.0058116072012762993   -0.26206341414844958
LJ  -0.19830040994447121   -0.46603268932520786   -0.27493151261352167
LJ  0.17355936571622518   -0.49849079331871926   -0.39851759485114036
LJ  0.28993115002102965   0.2137200445815767   -0.24648365288566942
LJ  0.0043475286481504654   -0.071926063622230127   0.21043983390716098
LJ  0.16052080499055751   -0.23271612391079538   -0.47636551746960598
LJ  -0.22676859622589532   0.2396124990436955   0.40357259606748164
LJ  -0.42180080621674815   -0.0049402640328851362   0.4850021186088449
LJ  -0.49052808421504435   0.4553373181965284   -0.089101568124228328
LJ  0.31879982859477801   -0.29142234727713451   -0.20215559196108918
LJ  -0.40549353885814005   0.099900702494722701   -0.47199754938587152
LJ  -0.35130965972019296   -0.27592934092688393   -0.049305867747347146
LJ  0.24490385453094179   -0.45426437939945863   -0.34951732638779814
LJ  -0.21460159587895503   0.0088207635629729969   0.35640158312720749
LJ  0.43923825188736437   0.48643633495083521   -0.14458652041703285
LJ  -0.022445320753913135   -0.28113860181410066   0.39088613520450521
LJ  -0.24589416043091042   0.079877561889688781   0.22796197486425901
LJ  0.4027852853824746   0.26138814592214527   -0.3860058921047258
LJ  -0.37818581161918841   0.46607188553938173   -0.30130572924676674
LJ  -0.17624440403205727   -0.19589930721733317   -0.39312430369207124
LJ  -0.0022761303700897543   0.4428866276806912   0.17407974039531154
LJ  0.010419433591143609   -0.2872551633745854   -0.049384423347549569
LJ  0.1898383618526544   -0.35365268212372569   0.071315246184982389
LJ  0.33040992509699679   0.28565659487475265   -0.23083434591565286
LJ  -0.33451299009706015   0.4791032399565272   0.16292659261954257
LJ  0.4205945999787935   -0.14120629228548529   0.14267455742836788
LJ  -0.43514734255026127   0.20147495592467018   -0.20396598726143805
LJ  -0.02104301822134232   -0.22535420621149085   0.44492755041761428
LJ  0.21422696919071796   -0.33153653855147419   0.00044887753236793064
LJ  -0.39304176767229165   0.41609087121408572   0.48794923809126239
LJ  0.22488755175481057   -0.022861446930477688   -0.35624360231782592
LJ  0.45784382646011496   -0.058038123081903002   0.21032556633110447
LJ  0.066355155698270399   -0.47728842581815706   0.43326595366382875
LJ  0.47940761344303529   0.25127474492417401   -0.14858312657622691
LJ  0.18085636844679595   0.24211434702857323   -0.0028468934914196568
LJ  -0.32721795863611686   0.17017814677530921   -0.49575844904033972
LJ  -0.3383711897872963   0.20060466573939736   0.095966315421241621
LJ  -0.18842206445573367   -0.013129579745938395   -0.39258571297268163
LJ  0.4946450267146133   0.38485368184491409   -0.030176585099900465
LJ  -0.17142728649362016   0.3858043767750633   0.28818402588291503
LJ  -0.47310266738185408   0.11461372416067669   0.38441109441982724
LJ  0.23426995308536178   0.31438941925850572   0.11011247664705358
LJ  0.42521907972961953   0.024140145693451111   0.45624638743636492
LJ  0.36282319346187897   -0.37543923163123738   0.15317644415847151
LJ  -0.14731601470725594   -0.4345187260850405   0.28451683516779164
LJ  -0.46365481539401698   0.44570431248476944   -0.37070343494051933
LJ  0.21814506931061867   0.15748388686487777   0.0015934678879691232
LJ  0.47086047969479988   0.12056035904718636   0.1604236164188847
LJ  0.083631354794073354   -0.15040689310620095   0.4541238896956511
LJ  -0.45532419883343939   -0.20136891419211264   0.1926002996613328
LJ  -0.42677020836968238   0.37547934972563041   -0.32574891784606819
LJ  -0.19112993159296951   -0.30260766548407497   0.34871171730452649
LJ  -0.30884784153109007   0.044263797670871893   -0.072298360795053709
LJ  -0.26392271459320737   -0.24620238957609797   -0.22752180823196044
LJ  0.19920001383967625   0.12429877754580884   0.47482281547353633
LJ  -0.28126749834734205   -0.30758598990378366   -0.0052066262340405983
LJ  0.32611906271013735   -0.1463205809395508   -0.16654366558283995
LJ  0.025057528338252623   0.018751222502404411   -0.048853669071501758
LJ  -0.21446690964132042   -0.48407265326000815   -0.05189690573317314
LJ  0.33759829013702308   0.33612952383443812   -0.15054000736430836
LJ  0.1337666947121782   0.26323182210436069   0.048711871610002698
LJ  0.35472358249636166   0.48467249946820595   -0.22090475188026323
LJ  0.046505792459753267   -0.15329973019748197   0.38158567227637757
