108
#Comment!
LJ  -0.24919184279115927   0.33626076870095328   0.16388646541963039
LJ  0.26485367462712545   -0.32575467177938117   -0.28208697547774103
LJ  0.17402734040180715   -0.1695791996320361   -0.016482147355721108
LJ  0.32429255255024891   0.008597754288967932   -0.36282824769552813
LJ  -0.47109980933602202   -0.41134954093126092   0.0091641210781017567
LJ  -0.25483918532823169   0.4780092652067755   0.19209905295920518
LJ  0.33527641203514535   0.46810263552414044   -0.30399753087306097
LJ  -0.27226473243760607   0.0075588153062995031   -0.33863257685257886
LJ  0.00071084313157441527   0.11923996234335753   -0.36231884075699144
LJ  -0.18961458739306564   0.22299621003066   0.1337385527885748
LJ  -0.080003485204952415   -0.022117783792107056   0.38004301501226123
LJ  0.14273421067132322   -0.3483304575676483   0.45717640961015515
LJ  -0.3889856395138731   -0.18946588678458853   0.40117577555222689
LJ  0.13096367947400056   0.14824473868201798   -0.052845788857846902
LJ  0.34103364610578224   0.46017258246127712   -0.13029849007374014
LJ  0.065935345750406577   0.20637349724119258   0.49868870977401847
LJ  0.1491864461698244   -0.14804594457311773   -0.38907189262645764
LJ  0.39113912134909928   0.16983746457495491   -0.34082462859533647
LJ  0.17214021798818555   -0.25631701891192371   0.40918846722850227
LJ  0.10105343496923146   -0.24156264774758854   0.4415723692552167
LJ  -0.27151461305863267   -0.39915695584504229   -0.32297333712878384
LJ  -0.12910173896625665   -0.39260592632526131   0.19743390229095231
LJ  -0.22375057315470542   -0.018961766469163678   0.2551947749777328
LJ  -0.30640695969426923   0.19029103805681236   0.3714059359796158
LJ  -0.21670362672013677   -0.14331326953625811   -0.21319850053849396
LJ  -0.41697140939440286   0.17597633628474582   0.48291805829027179
LJ  0.12437479360588119   -0.00039341172583348308   0.19573558966744334
LJ  0.38751969396861285   -0.46442528392084337   -0.17529814310192529
LJ  -0.4408602876009437   -0.088104450093104636   -0.041255305009315284
LJ  -0.38121173300325051   -0.11691250024824305   0.4670056056835708
LJ  0.12359247372471156   0.45460264996630995   -0.036935108006178247
LJ  -0.029352097243869966   -0.37390651510140449   0.455614607687435
LJ  -0.32500700777456415   -0.035604806011390745   0.31983481446401196
LJ  -0.091462683203971287   -0.48898643101479811   -0.37183472648942001
LJ  0.097271877693343375   0.22369847107945789   -0.10313983685390865
LJ  -0.078615188422658994   0.39540437344906521   0.23992300697132046
LJ  -0.45218275506256878   0.47556712264772255   0.38089079278827948
LJ  -0.24533893937249907   0.11567992007638768   0.10326181449671573
LJ  0.035591978771742215   0.10453759095822833   0.35425163773070195
LJ  0.38739390549035435   -0.35245887789633568   -0.29338924790690046
LJ  0.44104418735832346   -0.35066348377695805   0.23814655798144271
LJ  0.2687534365399683   -0.25603313627345797   0.021134819205547474
LJ  -0.41374718280315687   -0.48214129461036676   -0.37050386213158021
LJ  -0.19634350825894806   -0.37609448727206585   -0.25516758228298902
LJ  0.16205842504347015   -0.41354000970865945   0.1524574616366369
LJ  -0.2495363482233619   -0.0057728473428861468   -0.26200372247035247
LJ  -0.19807949542957412   -0.46605569679362202   -0.27498313114263334
LJ  0.17362370390166937   -0.4985117344474102   -0.39849998987779572
LJ  0.29007269424266718   0.21355315387040472   -0.24657977242239582
LJ  0.0044746578569054372   -0.07195083132595162   0.21029131039787499
LJ  0.16041274643754258   -0.23272791614900559   -0.47624549806464339
LJ  -0.22670990200351016   0.23965018315236697   0.40378994405465474
LJ  -0.42172347627630302   -0.0048362792307069186   0.48499749847832879
LJ  -0.49059054626245102   0.45539324924493485   -0.089111187710451525
LJ  0.31878100414443911   -0.29134662495706526   -0.20226609178760044
LJ  -0.40558672190693168   0.099924065712441751   -0.47207992894023126
LJ  -0.35129745569981002   -0.27582956759210198   -0.049415871131162671
LJ  0.24483316350608636   -0.45425347266992738   -0.34954958392401297
LJ  -0.21457364877165847   0.0087077073473707384   0.35648108748174828
LJ  0.43934631775454508   0.48640697488014695   -0.14468206189313434
LJ  -0.022482620205976838   -0.28117007895417157   0.39088452511288185
LJ  -0.24589796278121728   0.079814420735899477   0.22787671776366347
LJ  0.40280044728386954   0.26142474883056233   -0.38575488921244178
LJ  -0.37806265793586813   0.46607738068800031   -0.30134835386455217
LJ  -0.17610446029860524   -0.1958727482526475   -0.39316921363308821
LJ  -0.0023172123385512985   0.44264639269520406   0.17403052076741668
LJ  0.010470736304063344   -0.28727590914629769   -0.049212300561604951
LJ  0.18982024521957913   -0.35361776775297088   0.071289950182539349
LJ  0.33048768931444722   0.28572065147534598   -0.23079227944539954
LJ  -0.33476176907008709   0.47930592675491079   0.1627744209894359
LJ  0.42055535914609371   -0.14114884503954631   0.14282557449187708
LJ  -0.4351600759913713   0.20136900300043459   -0.20401571691773809
LJ  -0.021072986999699995   -0.22542592030136138   0.44500054657950172
LJ  0.2141536697133441   -0.3315942418561818   0.00050096408596492237
LJ  -0.392934344777431   0.41599099786007437   0.48803712684123191
LJ  0.22488972773634686   -0.022844374534789155   -0.3563062600238015
LJ  0.45796635980875289   -0.05797200082563695   0.21020640725051157
LJ  0.066362620988117196   -0.47730773252141134   0.43324276338607925
LJ  0.47947851517208012   0.25106068575006968   -0.14872141292476662
LJ  0.18104161772412505   0.24218140833692772   -0.0028378749648353165
LJ  -0.32718773782477029   0.17023535188042824   -0.49582701008259589
LJ  -0.33841742768374777   0.20062625619038699   0.095884481237134625
LJ  -0.18841670970099836   -0.013210306528611947   -0.39255765561554062
LJ  0.49460601438781393   0.38478298305714337   -0.030323959371328216
LJ  -0.17165141957691815   0.38573028100001128   0.28814656824455609
LJ  -0.4732098602238678   0.11453755424503466   0.38443789338826823
LJ  0.23427244117712054   0.31456052375646681   0.10994917127270354
LJ  0.42516905874673744   0.024171905845823936   0.45618499179226085
LJ  0.36271874400994597   -0.37541430269698167   0.15321198948147197
LJ  -0.14720947838338502   -0.43445155504865191   0.28461351537261242
LJ  -0.4636509808721716   0.44571908649926978   -0.37084077914814084
LJ  0.21809758339917923   0.15758650615577627   0.001519836579568033
LJ  0.47074999726537387   0.12065113843543041   0.16041559615850912
LJ  0.083589599916952598   -0.15034927708818505   0.45421341977292273
LJ  -0.45535585958330593   -0.20137163424418986   0.19259349594398398
LJ  -0.42673896758043089   0.37550087830149065   -0.32581240140200712
LJ  -0.19116679130969727   -0.30236437690071299   0.34882571943945423
LJ  -0.30882577723606269   0.044248903727925275   -0.072194653501973932
LJ  -0.26386419685057855   -0.24626918270104395   -0.22757584864415667
LJ  0.19919242889312136   0.1241333358056398   0.47472450415395262
LJ  -0.28137139871378541   -0.3075708366697622   -0.0052235929174982848
LJ  0.32608187659101484   -0.1462477602688691   -0.16650998226378053
LJ  0.025081072463566226   0.01874178323262167   -0.048743798123304365
LJ  -0.21452476591773181   -0.48397220375034877   -0.051758716627866228
LJ  0.33779132783086069   0.33617959249958257   -0.15039053329464591
LJ  0.13374572303149315   0.26331183890653326   0.048624430934231674
LJ  0.35478282011822476   0.4846944711425743   -0.22074525735318534
LJ  0.046654935550441971   -0.15322876094372201   0.38164472804287253
