108
#Comment!
LJ  -0.49532794901855148   0.49711198330243828   -0.47863478136970744
LJ  -0.32843490594628971   -0.33623422765068528   -0.47879050998520195
LJ  -0.49502615775672132   -0.33591993454939495   -0.31178845016366763
LJ  -0.32853971874312582   0.4969886731279563   -0.31216021855534271
LJ  -0.16202879774486734   0.49688482305385279   -0.47875315970544491
LJ  0.0046663129696589397   -0.33625616888748222   -0.47884136245921682
LJ  -0.16186583348913039   -0.33651760298606442   -0.31225840883857758
LJ  0.0047000520497708547   0.49703228035450159   -0.31226155525452626
LJ  0.1718489980348796   0.49708704683997007   -0.47872836331814456
LJ  0.33834813410526349   -0.33616300863743392   -0.47885538017519175
LJ  0.17152031644801544   -0.33634245104147009   -0.31247640210296324
LJ  0.33844755833858814   0.49707020878034758   -0.31185036721086146
LJ  -0.49493247631902676   -0.16927293649611641   -0.47844310169740312
LJ  -0.32816029756122661   -0.0031131537487402443   -0.47850950930107106
LJ  -0.49508831873281256   -0.002431012402706914   -0.31184539173404585
LJ  -0.32816794420085887   -0.16948669635631164   -0.31191619763129769
LJ  -0.1617433697101911   -0.16968532143059228   -0.47874222973335123
LJ  0.0052940235820727738   -0.0030827313196192078   -0.47867681063437328
LJ  -0.16146993021178965   -0.0027719212660201348   -0.3122258614806861
LJ  0.0048751883746848941   -0.16971068071796588   -0.31211033807699728
LJ  0.17167740696820058   -0.16962674080903728   -0.47866565837312536
LJ  0.33833247215353546   -0.0029031853484689221   -0.478841063566603
LJ  0.17152315813490138   -0.0027511880461134823   -0.31203855754129767
LJ  0.33817591933048929   -0.16929349389076695   -0.3122325759728623
LJ  -0.49502078210831746   0.16355213260720505   -0.47865362392546917
LJ  -0.32842622290150136   0.33025014347698695   -0.47875948669677065
LJ  -0.49493312685009005   0.33015728875239631   -0.3119825959996953
LJ  -0.32819120474272712   0.16381763836705932   -0.31192414690962345
LJ  -0.16145459294109493   0.1636932083746177   -0.47883045328407992
LJ  0.0049107174998940734   0.33028229551986493   -0.47864798601909647
LJ  -0.16175961818693274   0.33024175466703715   -0.31195367275420377
LJ  0.004971421455862329   0.1639304476023678   -0.31219055495270115
LJ  0.17164802910672317   0.16400939670425138   -0.47879679997101254
LJ  0.33843317625913599   0.3303951717475922   -0.47852210171737175
LJ  0.17172177979939204   0.33046218617142303   -0.31194563003664427
LJ  0.33838632703003135   0.16380267826111539   -0.31188116141677236
LJ  -0.49507600084595998   0.49713547432749278   -0.14512992438185884
LJ  -0.32832958801955703   -0.33633170942604779   -0.14531661906750393
LJ  -0.49538384932488277   -0.33617698333700791   0.020923118767076556
LJ  -0.3286448354567777   0.49716596282176961   0.021487395729959256
LJ  -0.16181861799836317   0.49688065688377131   -0.14545120892710772
LJ  0.0048515189174137604   -0.33632435190035714   -0.1457092701146237
LJ  -0.16166680354745966   -0.33664726573443143   0.021246840913502943
LJ  0.0048208792281375741   0.49698069509561799   0.021017172446510326
LJ  0.17157104378068258   0.49693881311904869   -0.14565454228438784
LJ  0.33787833445682125   -0.33590321167823223   -0.1455309472279474
LJ  0.17110981769476882   -0.33635757266157329   0.020906937913966035
LJ  0.33785500125021312   0.49706017568916849   0.020948723454260722
LJ  -0.49501669511836099   -0.16930880855283964   -0.14541794628932384
LJ  -0.32811478615357054   -0.0028765931850536926   -0.14531985011588847
LJ  -0.49510393533574376   -0.0032068866691467657   0.021096159534121414
LJ  -0.32834080861971943   -0.16988629826512477   0.020977478619105972
LJ  -0.16181661312031695   -0.16968901600254044   -0.14559765214703463
LJ  0.0047705204746957084   -0.0030006189453102572   -0.14556141456409111
LJ  -0.16181651805743211   -0.0032306261239641891   0.021201305608904441
LJ  0.0046362518975199846   -0.16955605947882579   0.02121461630598432
LJ  0.17127298267723243   -0.16956057355301266   -0.14565686990903143
LJ  0.33792253669375455   -0.0028687695367398667   -0.14532495312660776
LJ  0.17085286937736491   -0.0031984886470252326   0.021443925953212071
LJ  0.33781008020806275   -0.16960217706015937   0.021248627045755229
LJ  -0.49499185944825641   0.16388936589273279   -0.14511683269071601
LJ  -0.32853099304823802   0.33040416865347061   -0.14497125292035296
LJ  -0.49524134994983454   0.33028112566883011   0.021346414952477143
LJ  -0.32825892511865551   0.16380141374596657   0.02157701222297256
LJ  -0.16175025867605583   0.16384039507689807   -0.14530695226681023
LJ  0.0049354436844038056   0.33033953824008422   -0.1453884242028736
LJ  -0.16188890591675409   0.33044507843676613   0.021625087642055427
LJ  0.0049310642063010611   0.16402621910528964   0.021357037861991498
LJ  0.17126734317840872   0.16366036376389531   -0.14532848450383748
LJ  0.33821574656199144   0.33002500209986269   -0.145280265251167
LJ  0.17166177035799263   0.33019095061950543   0.02150683837106496
LJ  0.33832463960019543   0.16330576284527396   0.021445242268498841
LJ  -0.49533048722394857   0.49698455042916834   0.18763232151360956
LJ  -0.32855546445874151   -0.33645730888504566   0.18791455124529008
LJ  -0.49504640978273895   -0.33621396995013891   0.35460120955905855
LJ  -0.32861611784759115   0.49691161412148727   0.35466079062177247
LJ  -0.16183363006467572   0.49694691763175447   0.18802472003136148
LJ  0.0046018288087252808   -0.33665912706428452   0.18798525108535613
LJ  -0.16190349227105744   -0.33657889045598155   0.35455084258391567
LJ  0.0049759383230546768   0.49680400611434433   0.35494538609379894
LJ  0.17149419650149206   0.4971203752217595   0.18780007044025296
LJ  0.33803221904703701   -0.33638165814827214   0.18776120651535935
LJ  0.17147096333518411   -0.33619699162814726   0.35470488333577138
LJ  0.33846676696068362   0.49711768581005389   0.35461483702888835
LJ  -0.49494654458164594   -0.16964578138322967   0.18764183065803755
LJ  -0.32852579306585722   -0.0029955457055063383   0.18769841427188613
LJ  -0.49499698011007454   -0.0029915817872402536   0.35454146896877042
LJ  -0.32833297642323322   -0.1695971396424191   0.3545944225036472
LJ  -0.16208595639302037   -0.1698978567496198   0.187931265246637
LJ  0.0044234924879531018   -0.0030904481184849783   0.18802361120924296
LJ  -0.16154495212574296   -0.0030452831521470139   0.35456263719744024
LJ  0.0047971061022584601   -0.16968339029346957   0.35477310509596155
LJ  0.17117232845872335   -0.16998554972496663   0.18808918927404986
LJ  0.33807150947841552   -0.0031058956610343371   0.18792205378219443
LJ  0.17142361769987965   -0.0031992233461861155   0.3546657569436506
LJ  0.33844496310517508   -0.16966293873135271   0.35447180846022769
LJ  -0.49505539795944448   0.16352459527547708   0.18807955148258074
LJ  -0.328597974048284   0.33035688594467189   0.18806529205684108
LJ  -0.49523877185366955   0.33016989710384331   0.35456311086250303
LJ  -0.32854936251104611   0.16352576029252253   0.35467043864888165
LJ  -0.1618399843021596   0.16359672310411846   0.1880313729362193
LJ  0.004900205986625287   0.33048996308716333   0.18779054060086742
LJ  -0.1617781190836256   0.33019807501154969   0.35446778851333893
LJ  0.0050801568100154182   0.16376811492269941   0.35454905829916256
LJ  0.17141213581760947   0.16343559327050391   0.18813769720351078
LJ  0.33806764214507773   0.33037176941606028   0.18811214660781211
LJ  0.17168652024227418   0.33034091009607913   0.35447980628042292
LJ  0.33826384376138968   0.1634966573854898   0.35456152874439512
