108
#Comment!
LJ  -0.23450565978505242   0.21866646993189265   0.14793651904136876
LJ  0.37157771865295541   -0.21444676594287992   0.34625211350989044
LJ  -0.11028539829231376   -0.20193914363908891   0.082597808120600746
LJ  0.46591571971324131   -0.23819237905776203   -0.33649826034528635
LJ  0.14523593861421549   -0.48325221035706539   0.25394019392615874
LJ  -0.23202811221560338   -0.32107913529379151   -0.35434650334478052
LJ  0.24205171873143527   0.42947745012345062   -0.14615568024382972
LJ  -0.41531262887571668   -0.17005584182153821   0.25379305356084914
LJ  -0.40080395699542587   0.12419417785126453   0.45563086625428095
LJ  -0.19745697122588624   -0.23009985732541441   0.24720959790560068
LJ  0.4584112086132649   -0.034646712617417016   -0.35395657753003407
LJ  -0.38853230363537128   0.42805333257595357   -0.12427241436137801
LJ  -0.3922556010525422   0.24795101896078853   0.01425233953403668
LJ  -0.2515617060451022   0.4409461113847355   0.40615633190707862
LJ  0.1738190264807192   -0.22030656441443175   0.13091337916386928
LJ  -0.080938557819005399   0.30663108174286519   0.43817844190762428
LJ  -0.35868940098045171   -0.20710769796746914   -0.22746099774768092
LJ  -0.028468243551111893   0.4670710134930397   0.196964417571621
LJ  0.33976738172020499   0.010287961711639643   0.24291423496597411
LJ  0.041270320658822308   0.16601248600908478   -0.03675848153879778
LJ  0.098041760142301163   0.34248451476590791   0.32738332806545595
LJ  -0.10973615506219768   0.38340191390571698   -0.36632233739458592
LJ  -0.32369657024432014   0.28020489642742674   0.2975719831131608
LJ  0.25171276227272915   -0.28029151490264892   -0.065869666780143166
LJ  0.32443789451473043   0.33922413787867345   -0.36608649547445754
LJ  0.37377902779055405   -0.19699859888879931   0.14226812857152318
LJ  0.12812771090474509   0.2407920902603905   -0.22824233091719526
LJ  0.06064985980760082   -0.44978574253257492   -0.14217873935100217
LJ  -0.46618788848099779   -0.48049173873713075   -0.32336476690297278
LJ  0.25421265713391483   0.0082167433153945025   0.41936085038852006
LJ  0.32611589469169616   0.36501111915956358   0.34694073864925806
LJ  0.099885253530825016   0.092879042281702434   0.30904400668058035
LJ  0.37304839523358291   -0.40631744391132235   -0.25188394412139797
LJ  -0.085616634381860082   -0.17919016760926529   -0.42588393234011673
LJ  -0.3239061873409943   -0.39944834812040797   0.020992791992526197
LJ  0.39716436322747228   0.28900077915031686   -0.08539280086799611
LJ  -0.19753688072217004   -0.43582421708414781   0.21962027222419672
LJ  -0.32093227544557412   -0.32510111229545624   0.36857130411867245
LJ  -0.061827978618698633   -0.085228353183837757   0.29259591423151321
LJ  0.2893080726520787   -0.20131854996579193   -0.27634639060170635
LJ  0.49831234179351441   -0.35371488508468213   0.21291142535942414
LJ  -0.042481495792119135   -0.43745514027471599   -0.32234309310480408
LJ  0.28267267089420545   -0.25126508445772661   -0.48519013158057328
LJ  -0.012003414903377569   0.49532252374858315   0.4418327689958641
LJ  0.42548951934933094   0.11406086722255118   0.013515635661565722
LJ  0.20658556049420798   0.19436575174533702   0.41609145120019814
LJ  -0.4999340291140863   0.36035058675379189   0.48895204423596311
LJ  -0.47685225764164257   0.31811576801823388   -0.29605059672309086
LJ  0.046190210380403433   -0.3182928662531147   -0.0095347709763416496
LJ  0.49552764546020844   -0.075461462233765389   0.42576946344739175
LJ  -0.043274770127338352   0.17780560628150263   0.16893571691777726
LJ  0.15342892503040992   -0.10722821461435716   -0.40900027613941625
LJ  0.045240129382449208   0.38036995551495489   -0.055864368142313006
LJ  0.35163667402477794   -0.48180169042870469   -0.46162397110852427
LJ  0.23529151927938158   0.16488026230468106   0.16705927404582926
LJ  -0.26680750899142519   -0.40194921292760394   -0.17554720890606301
LJ  -0.35496549561477597   0.043979701469424537   0.016558676858796164
LJ  -0.11901802631393207   0.36145582853623437   0.069172137009887932
LJ  0.092056646809862669   -0.23480765980060975   -0.193966699400107
LJ  0.23182377280281061   0.15410223321644875   -0.052870266749385032
LJ  0.023537108141790365   0.16396178074608883   -0.43707015786861558
LJ  -0.15526287691518165   0.14155828202515502   0.36242013890664398
LJ  0.15714835474805855   0.40723641926637438   -0.4861965491301713
LJ  -0.28099109446567416   0.022932455686369296   0.25944103920700923
LJ  0.29621097434426463   -0.031725815605515212   -0.15760260416734007
LJ  -0.1243272716941454   -0.063957791522961313   -0.073296676539941277
LJ  0.029071769554354598   -0.017724512315902847   0.46529816786279066
LJ  0.069846463707951931   -0.12168473268189221   -0.030807209098018328
LJ  0.49267715881204921   -0.38976745940361757   0.43802754949015382
LJ  0.49764427031875053   -0.096896102455957533   0.025925479704110081
LJ  -0.2634724031463086   0.19860078225785985   -0.41159246553094181
LJ  0.41552226902614869   0.17245091607219495   0.36590692178262524
LJ  -0.39715312294401062   0.49384611183844374   0.30359317177717565
LJ  -0.15854514064239439   0.42117750675762317   -0.15973194314969877
LJ  -0.19427024216860958   0.18785904598925787   -0.034472657813689245
LJ  0.13893540071693194   -0.15970342297785314   0.31544438664450836
LJ  -0.34525164940865671   -0.43198698025975985   -0.46445161536393348
LJ  -0.11573351120206465   0.015541419898063158   -0.32038312522173912
LJ  0.22274213296412032   0.35269411907814685   0.10344037523786948
LJ  0.19119156314828673   -0.44748648117332074   0.037816298620562974
LJ  -0.17521054438897388   0.20792249200811155   -0.23717658210591169
LJ  0.39454916890349406   0.15670022883962609   -0.43890988071503095
LJ  -0.12066968156360669   -0.2155648933710469   -0.23484919097146839
LJ  0.18416325913686146   -0.42653111804723254   -0.35956573577612927
LJ  0.069172441580608965   0.010776630283513281   -0.20739545577407814
LJ  -0.10646164837840826   -0.32352575632065095   0.4296493799323815
LJ  -0.20442467333518663   -0.11595895842483263   0.43137897897906302
LJ  0.10025022842502046   -0.34144033305666699   -0.49784003185768821
LJ  0.26906036778046977   -0.37298489903673709   0.36422943390721263
LJ  -0.31563019402569586   0.41510448189279958   0.11516077430336581
LJ  -0.28811316568116135   -0.013011132988525641   -0.18689107989155571
LJ  -0.29991736149972886   0.41075410634634285   -0.31242600814785937
LJ  0.39826396402113401   0.26818732381930405   0.17754292240001496
LJ  -0.24789258222946806   -0.2248777492604902   -0.060408606600415957
LJ  0.082105803968506752   -0.033230594682920979   0.14451957966425349
LJ  0.27034889864453748   -0.03191926572304344   0.054922766826280452
LJ  -0.15973519074227405   0.019175809281477333   0.10742796492435545
LJ  -0.30159362868528189   -0.0052414833611107809   -0.39373405956760055
LJ  -0.38513887674397024   -0.2080470779544287   -0.47611141984738115
LJ  -0.017577535685415611   -0.3239997247928792   0.20516135912209274
LJ  0.20120191135860777   0.090967951289660107   -0.35317417690964054
LJ  0.35433400747240207   0.48797536253884749   0.15972658392682126
LJ  -0.45136023105281892   0.11019634359837906   0.20911770575702615
LJ  -0.12407223852215925   -0.4261572329913263   0.0060808009759209854
LJ  -0.39883281174154739   0.16110134614258378   -0.18899400975013553
LJ  0.39840291496862434   -0.49742067653885119   -0.052695984040002246
LJ  0.48299085332481384   -0.25879465509166455   -0.11104435414436763
LJ  0.40909420057633022   0.14070079316037529   -0.20428575889729472
