108
#Comment!
LJ  -0.23429716866361688   0.21878297414424883   0.14754215587396524
LJ  0.37164141315301963   -0.21444557826060701   0.34587690907156055
LJ  -0.11038482110905952   -0.20182442773314832   0.082705897611727294
LJ  0.4659396068457341   -0.23777021453580727   -0.33657936775220926
LJ  0.1454663829551858   -0.48309674089634463   0.25403333338311873
LJ  -0.23187998619296654   -0.32110041716762217   -0.35440508410109306
LJ  0.2420238304558035   0.42958198240151974   -0.14599422502116241
LJ  -0.41547478417250189   -0.17034086156698539   0.25387055746776221
LJ  -0.40051298821808068   0.12446587284750811   0.4554643057490122
LJ  -0.19728145231479272   -0.22999935119475184   0.24738608865890671
LJ  0.45831237832767674   -0.034345635327225281   -0.35417233037259471
LJ  -0.3891075783714662   0.427788970363497   -0.12437779631494843
LJ  -0.39196742554795289   0.24798930662651336   0.014185941331491534
LJ  -0.25146481805237209   0.44087557660955656   0.40631866266132494
LJ  0.17393301241448009   -0.22065198476570699   0.13062880122751627
LJ  -0.08102336528657525   0.30675379377251472   0.43836176453949754
LJ  -0.35826779883882853   -0.2074128196505704   -0.22739483201520305
LJ  -0.028654927550534285   0.46704849679346855   0.19711599234367561
LJ  0.3398866510026976   0.010167576774432793   0.24264065805044718
LJ  0.040999503250340089   0.16611306654758684   -0.036746659468826624
LJ  0.098126247350228041   0.34237638669699877   0.32716428805311931
LJ  -0.1100630551479953   0.38353792084705296   -0.36636075293138709
LJ  -0.32324342325753386   0.28049430335200731   0.29799175427641295
LJ  0.25162390129898743   -0.28011960312315048   -0.065616306369306168
LJ  0.32421060520113709   0.33960671801179537   -0.36598104699800721
LJ  0.37359966066989952   -0.19736465275101298   0.14240655430598761
LJ  0.12810672671445364   0.24088411687518732   -0.22813301022333743
LJ  0.060471112671300092   -0.4498279609007948   -0.14215867968025159
LJ  -0.46570946798383756   -0.48034137099914392   -0.32335595653575988
LJ  0.25441341117840338   0.0081044984457860451   0.41921239237518859
LJ  0.32603368825298551   0.36462261662352752   0.34690689069750869
LJ  0.10003640430555844   0.092778435508097543   0.30909053584237145
LJ  0.37319319899937176   -0.40607251185776072   -0.25150101696232113
LJ  -0.085214044154183405   -0.1792615761216316   -0.42587825031362186
LJ  -0.32387907124703297   -0.39969360557102662   0.02085704605892252
LJ  0.3972370416777562   0.28951834289252293   -0.085217178576782696
LJ  -0.19760060324704182   -0.43567356789264006   0.22005300413232995
LJ  -0.32090848651127218   -0.32525274085256539   0.36870823542945108
LJ  -0.061523172460054197   -0.085432332192837968   0.29245991445074632
LJ  0.28942868478177991   -0.20110409795468723   -0.27669272755211577
LJ  0.4982551802981558   -0.35342713877653498   0.21292199113098709
LJ  -0.042342738448584098   -0.43750474468800665   -0.32275499544283731
LJ  0.28289413075861003   -0.25139513979957118   -0.48506715728796962
LJ  -0.012297313912801689   0.49519427053238296   0.44187319580640755
LJ  0.42565304423499684   0.11392311928934196   0.013395896803580819
LJ  0.20670061200093934   0.19447028499852226   0.41627517372946576
LJ  -0.49984533971218625   0.36052667754365381   0.48925649110806174
LJ  -0.47688900911350435   0.3180967100547441   -0.29603556329310232
LJ  0.046243213814516564   -0.31842213673684955   -0.0098491038213390936
LJ  0.49561529662500048   -0.07553842083171658   0.42562091209088482
LJ  -0.043141586769735916   0.17783687352005181   0.1688568854729921
LJ  0.15340961753926072   -0.10746467418287335   -0.40900737578163138
LJ  0.045050745290255705   0.3804532753597834   -0.05578083748776215
LJ  0.35185792489824391   -0.48184380771983137   -0.46177271573056183
LJ  0.23542644389804523   0.16520272794469423   0.16736632803987694
LJ  -0.26696624458273371   -0.40188313954074456   -0.17537741698254267
LJ  -0.35502009980460592   0.044082680673478328   0.016484404762210993
LJ  -0.11901492132327965   0.36122938221236822   0.069200700654509464
LJ  0.091810606744727324   -0.23458190074992213   -0.1942475055820303
LJ  0.2317309303613132   0.15397893369219057   -0.053073163856611226
LJ  0.023745866078494358   0.16409263523257772   -0.43680682389875053
LJ  -0.15536020215169796   0.14162313946620558   0.36223190359592911
LJ  0.15730112076465841   0.40726673367517846   -0.48603943585610659
LJ  -0.28107768169045716   0.022803742038950362   0.25919888771798155
LJ  0.29592266216313445   -0.031829693170125614   -0.15742678725836526
LJ  -0.12439357003691175   -0.064335233337826148   -0.07334167391764268
LJ  0.029373678443959519   -0.017678517759026062   0.4654674104351621
LJ  0.06996989675440124   -0.12133482919366777   -0.030838953305283977
LJ  0.49286762990460581   -0.3894850049822785   0.43770097199453695
LJ  0.49778588178340788   -0.096965338244726348   0.026344465694262055
LJ  -0.26342876581085584   0.19859398941596818   -0.41167473233114288
LJ  0.41549993902157251   0.17233889056896984   0.36580306012872577
LJ  -0.39719731704681238   0.49382220063705368   0.30327432719461445
LJ  -0.15877907584422743   0.42118927472046197   -0.15977179902551339
LJ  -0.194485068969901   0.18762359671260173   -0.034450386281620712
LJ  0.13900590055248699   -0.15976584417243883   0.31551878554579516
LJ  -0.34532237796316834   -0.43233029699566383   -0.46437945329728786
LJ  -0.11596935326334652   0.015478699038327959   -0.32040599854525514
LJ  0.22298455351673155   0.35269979068948959   0.10333011983868141
LJ  0.19135746825684419   -0.44734611184027884   0.037823777931783327
LJ  -0.17560197982842557   0.20778069933456003   -0.23679366246420888
LJ  0.39433922873878052   0.15662644223142075   -0.43881909933904645
LJ  -0.12067723863312498   -0.21560827869192176   -0.23529608799469887
LJ  0.18420298819464509   -0.42644901558863357   -0.35960854445413865
LJ  0.06877936996908092   0.010588458552558969   -0.20688938094790926
LJ  -0.10690368878842031   -0.32373537081253162   0.42944832965458374
LJ  -0.20464193125705687   -0.11589975058053824   0.43162346610484698
LJ  0.10031400078762374   -0.34123436000229757   -0.49793451253205073
LJ  0.26913891218469449   -0.37293161183002427   0.3640331315673338
LJ  -0.31558816474164941   0.41499883080054728   0.11550632164115084
LJ  -0.28779359318651504   -0.013047830964469929   -0.18669406497106242
LJ  -0.30041352950146299   0.4105554906138964   -0.31278362624897421
LJ  0.39822332895466134   0.26828644618675102   0.17750649069824487
LJ  -0.24807483031011804   -0.22506156710655537   -0.06034955249993073
LJ  0.081970302256507241   -0.03302832280729634   0.14442212078765021
LJ  0.27018548303994883   -0.032143521179823248   0.054772671849750938
LJ  -0.15948867806920766   0.01888856053828564   0.10740587311004489
LJ  -0.301357581660742   -0.0055882898566572544   -0.39361336980823269
LJ  -0.38531322326993084   -0.20799547559762238   -0.47620442685389525
LJ  -0.017778343419008247   -0.32391981403089493   0.20511412154326847
LJ  0.20125518001884646   0.090949374980375877   -0.35307285564838276
LJ  0.35400697802014991   0.4877591180316867   0.15984106998082301
LJ  -0.45141367289445294   0.11025602326871468   0.20918954109276588
LJ  -0.12407427345253062   -0.42603159222373921   0.005965008380668612
LJ  -0.39909609073652552   0.16116080030689092   -0.18915582010641777
LJ  0.39808396823656894   -0.49708341362430197   -0.052265869400466257
LJ  0.48312841137055951   -0.25863234554867498   -0.11091734444867729
LJ  0.40943196783942681   0.14078572826299887   -0.20469025427445972
