108
#Comment!
LJ  0.48344443678524568   0.28814460942688197   0.37010027610945062
LJ  0.27718064895189848   0.36454330652837469   0.35168245075696841
LJ  0.18295220277114901   0.38995562790376365   -0.22041792663871446
LJ  0.4098344585357091   -0.40798117394733879   0.24220207010107311
LJ  -0.46505062916554346   -0.36909340260433898   0.19891523765484875
LJ  -0.014181799620243308   -0.0031923299268419966   -0.22609792915587199
LJ  -0.13357335304424992   -0.18067341363742939   -0.16103848290623449
LJ  -0.16726926095954189   -0.1734293201059558   -0.3859329473027
LJ  0.37179148055017525   0.49619673362075478   0.3888749435125578
LJ  -0.092781863397207245   -0.074325920144529573   -0.056127832752777773
LJ  -0.048227089281706395   -0.16261434580307946   -0.20561812116041636
LJ  -0.10353552087323642   -0.27721321500123969   -0.052700799960923736
LJ  -0.34377303024284322   0.19791913725297372   0.39681496979742548
LJ  -0.29022096758984145   0.26478396178516556   0.33604573284287043
LJ  -0.062473774407059084   -0.11789845367010858   0.12388263938655553
LJ  -0.19694424338961217   -0.31450270092898297   0.45451867532357776
LJ  -0.033365849575061009   -0.49168841339203817   0.088117404277828631
LJ  -0.32161419228076482   0.19383456985594505   0.13568309414199903
LJ  -0.21554740557248375   0.080356363510625098   0.054684480496406992
LJ  -0.12580204129904055   0.34231742849322599   0.10266577587379067
LJ  -0.32812423302506155   -0.31152966501544788   -0.22197937284060829
LJ  -0.23067667832668662   0.35056072344045391   -0.10202878388433086
LJ  0.31710340477609794   0.23395888063041739   -0.4226249807403285
LJ  -0.13729698800373136   0.43125428618937556   0.26719486521591673
LJ  0.083521619051511439   0.048273664013214125   -0.19316206444660675
LJ  -0.36000589510270542   0.19931515252854701   0.26811170353751118
LJ  0.23796634746985743   -0.38804884444018228   -0.029967764942614314
LJ  0.34718174195460916   -0.13402428593540966   0.39487406451668372
LJ  -0.36794345773718612   0.093395844536622946   0.48884486442725067
LJ  0.13649270467194494   -0.4473657697200909   0.019045343594301475
LJ  0.31848209827692947   0.39850283248909868   -0.19038722217051954
LJ  0.42336646708642989   0.23109547628667543   -0.33788897476646679
LJ  0.24088696308228225   0.25268740480394608   -0.20763848940907614
LJ  -0.41985399588925626   0.16330166579490549   -0.39444387501273687
LJ  -0.4589073021568249   0.44056412132807099   0.33129697109301121
LJ  0.45374239308873371   -0.35709099360720242   -0.073740547281370777
LJ  -0.22426172163274136   -0.43526192444978445   0.34650349174241596
LJ  -0.3427935908803651   -0.25684073843830585   0.06315709351508611
LJ  0.070481212810827754   -0.0091205270527483298   0.40923228172766907
LJ  0.13258866323024363   -0.46888913646422037   -0.47836591007593865
LJ  0.39762919286414505   0.27139470274732802   -0.45757556597731824
LJ  -0.47895677392225117   0.11421567634448819   -0.48403296140716018
LJ  0.29992674491555971   -0.248093665309121   0.41949053375033968
LJ  -0.08075575659389711   0.0009541995160402628   0.15973666832108635
LJ  0.30935742136007738   0.13243912896357676   0.31299880551153147
LJ  0.21853562594526518   0.13366919911330244   0.24471021674010335
LJ  -0.11884259375740881   -0.05305407364419254   -0.22555359477268258
LJ  0.16305881889056417   -0.0080253067228957531   0.19680117544577228
LJ  -0.34993522084793782   0.47844654307145523   0.12350893195566107
LJ  0.12992120463833587   0.20636268165655522   -0.19266164142434031
LJ  0.16286742788550518   -0.22622003487191328   0.29781732866669341
LJ  -0.32901541964215197   -0.22534669520290757   0.18674367897402003
LJ  -0.050594232016348044   0.49982184919408534   0.17817031489700488
LJ  -0.37809242003264282   0.45540886483222154   -0.04700558524962855
LJ  -0.037457176963491517   0.21560680597478799   0.3504681375075443
LJ  0.39494692133194637   0.24522865616123063   0.36188826624788067
LJ  0.38789706718309941   0.47256468527541817   -0.16302687873645025
LJ  0.31365317074958859   0.10752199088172604   -0.46904588015183729
LJ  0.45835520738765317   -0.030306113908962783   0.46158044943457444
LJ  0.26184222927620232   0.21319363977404882   0.38079809456018587
LJ  0.30624779263744256   -0.11943255895038499   -0.12000105242191748
LJ  -0.33509706224963637   -0.13124093358411754   -0.036856544272590074
LJ  0.12771279828406376   -0.21327154332072942   -0.26638986191484804
LJ  0.28127403526905653   0.12822519714213929   0.02959780577562281
LJ  0.094613839943940251   0.02649732947225325   0.26163799095899948
LJ  -0.19662920629993175   0.097870121851098377   0.49166228523706157
LJ  0.15837772077861648   0.37829289773425517   0.28643458602353228
LJ  -0.056307723790232175   -0.17860701836982074   0.4534212977308747
LJ  0.33266484908270622   0.0014331077456729638   -0.14527110399564855
LJ  -0.41954177576563034   0.25344473970487741   -0.43003117319999207
LJ  0.12430594072051862   -0.15924347506174538   0.47057678432954569
LJ  -0.30020124661119901   0.0085902351960438043   -0.032204918489750795
LJ  -0.35622838215410813   -0.44775259938741041   0.45566192285394558
LJ  -0.031371548502953921   0.051388527408328367   -0.10887813594779473
LJ  0.095575549525993647   -0.30715702118539762   0.13390499199422692
LJ  -0.39367443785226197   0.054504261689137253   0.31498593784768414
LJ  -0.11642316494422615   0.084542964874755031   -0.23415556196238571
LJ  -0.14354285209045642   -0.46438352709509156   -0.30356235116827829
LJ  -0.49494967201600476   -0.22827604709266477   0.038537391371382484
LJ  0.33152879453025735   0.40693817301471358   -0.2695485970543291
LJ  0.16652477162771681   0.15586372344763239   0.034689695259132389
LJ  -0.4877687696272775   -0.24746010992990916   -0.07061024392729974
LJ  0.43272760826934309   -0.2475132671564988   -0.24842431506063128
LJ  0.0031027401566060056   0.063322030103754853   -0.32029500530088018
LJ  0.14983527023477947   -0.088417456054621382   -0.40148157517355254
LJ  -0.49324879910895847   -0.30479756049661383   -0.35830138139369916
LJ  -0.084891464273542674   -0.38423186768502732   -0.2993154835792543
LJ  -0.25493294101199404   0.42557731848765407   0.10233246940158368
LJ  -0.3250560997690185   0.27123290216271195   0.46129544404111378
LJ  -0.19426738279262401   -0.34104118307658066   -0.47169875456261628
LJ  -0.35958508261148031   0.17459454756137749   0.49822084576949516
LJ  -0.32249404779091645   -0.031247657156468139   0.15620240657610215
LJ  -0.062162529238276754   0.10730652951021337   0.33540943177553978
LJ  -0.47319758168076193   -0.43215484097826812   -0.098181443611502078
LJ  -0.12266999541844432   0.29763750060459021   -0.38443014290335864
LJ  -0.13621743182133031   -0.065402429477218443   0.14383598844893578
LJ  0.032145064128583707   -0.33790558945621679   -0.27104377567290799
LJ  0.19613863907281701   0.038318796264845648   0.029524774581547748
LJ  0.13538754685488383   -0.038974293146899805   0.37585964241362946
LJ  0.39163278356134551   -0.49558759897973997   -0.26093097714242275
LJ  -0.27226524938048857   0.47908382545550582   0.033662043911923102
LJ  0.35423739088957334   0.38967216941169497   0.057668218498124389
LJ  -0.13943518954503833   -0.38544033253178456   0.42501601315059023
LJ  0.19871506180133597   0.19462708039403601   -0.26171456116281927
LJ  0.42196520476432842   -0.26817342152374235   0.035590951812968681
LJ  -0.14742754864160171   0.39730922092838422   0.18673036592029985
LJ  -0.14854215664403234   0.43690152437510676   -0.29021101141807321
LJ  -0.14371748032840628   0.15857765481647165   0.36298174572182745
