108
#Comment!
LJ  0.48343370179242778   0.28806007195445671   0.37012795327315184
LJ  0.27720994163578178   0.36472967419904329   0.35165944749398337
LJ  0.18295946895167822   0.38986742629837123   -0.22052458190658961
LJ  0.40987558209894009   -0.40783788505092006   0.2421643804493416
LJ  -0.46502814520927782   -0.36923387191711082   0.19875236823666892
LJ  -0.014097704992469985   -0.0031140238039655418   -0.22612177888912521
LJ  -0.13351840542510071   -0.18059583764315015   -0.16107570199906307
LJ  -0.16739096832452971   -0.1735008293949904   -0.38593452858599975
LJ  0.37173604604800448   0.49627584156484233   0.38880552445358868
LJ  -0.092682492646660744   -0.074473283259875123   -0.056119278588334862
LJ  -0.048271010341526997   -0.16260240808653709   -0.20563537863751075
LJ  -0.10346622834345433   -0.2772890873767464   -0.052654124886930581
LJ  -0.34382020817632608   0.19791827344739879   0.39671312353331023
LJ  -0.29019603556930695   0.26472342184267528   0.33611968997219649
LJ  -0.062564477190801396   -0.11790390501016293   0.1238889617233182
LJ  -0.19688514668747134   -0.31450389570176751   0.45447703419815066
LJ  -0.033355945668068723   -0.49182177786210457   0.088037583251891247
LJ  -0.32166218482496417   0.1938275436519438   0.13577848860723907
LJ  -0.21546006360092704   0.08032427953395993   0.054653680071069327
LJ  -0.12602617149819334   0.34219228930453499   0.10258516348990102
LJ  -0.3281014841727935   -0.31143110148107606   -0.22211566461383883
LJ  -0.23068329013815403   0.35056439549058316   -0.10197097045675546
LJ  0.31718735961542327   0.234010005404688   -0.4227305255870154
LJ  -0.13733716411220634   0.43148714453393811   0.26713648054486105
LJ  0.08363093618416019   0.048217739245899276   -0.19307507270896335
LJ  -0.35993872230924867   0.19914477982787329   0.26817541424731983
LJ  0.23790682104268648   -0.38804098882613502   -0.02986454458879461
LJ  0.34713410418032348   -0.13401643646112435   0.39488148127585321
LJ  -0.3678494269138417   0.093401086708598938   0.48874329607285605
LJ  0.13630464166532572   -0.4473365731442317   0.019037966249147869
LJ  0.31853935404078637   0.39854708650357279   -0.19036640033681607
LJ  0.4233384335706783   0.2310393195161658   -0.33796784988002954
LJ  0.24072983536683329   0.25265382541817311   -0.20766004548814443
LJ  -0.419959216796773   0.16313840725996362   -0.39436588443594811
LJ  -0.45886643884563871   0.44071533796976092   0.33134635651446898
LJ  0.4537801001286717   -0.35696997451301582   -0.07374842433570189
LJ  -0.22419906867544612   -0.43533579753666024   0.34653958614156105
LJ  -0.34284674423912703   -0.25676241117132703   0.063218274033968166
LJ  0.070504530213067171   -0.0092496649606442632   0.4092978743377802
LJ  0.13252965003795258   -0.46878565685023171   -0.47836432478508112
LJ  0.39759674419174545   0.27142650008422636   -0.45764786969715615
LJ  -0.47899341231563397   0.11428394626876064   -0.48401197664122164
LJ  0.29989534482446317   -0.2481458449735304   0.41942467527305177
LJ  -0.08086860426272563   0.0010469680038204515   0.15974341072661991
LJ  0.30934299654500214   0.13239557060520976   0.31307602967883508
LJ  0.21861757733370291   0.13361118471640077   0.24471649968831519
LJ  -0.11899008383625126   -0.052931284716423659   -0.22572709764433208
LJ  0.16300536192772183   -0.0080494378374872215   0.19670218272303006
LJ  -0.35000768900688428   0.47843577362391232   0.12345848617238508
LJ  0.12997178034594464   0.20640326759963759   -0.19270313728385083
LJ  0.16298482711309573   -0.22632491785106515   0.29780345191147872
LJ  -0.3290727529831704   -0.22541111395380703   0.18678515562726919
LJ  -0.050584499568128528   0.49980872470948645   0.17836578143899698
LJ  -0.37798498664431607   0.45540966956367257   -0.047106824497442898
LJ  -0.037499020343027711   0.21569407048080663   0.35045367823275891
LJ  0.39469113053198662   0.24519383847268345   0.362023933020722
LJ  0.38783230184695433   0.47256842827965995   -0.16293822170826627
LJ  0.31361556917521555   0.1075492548277568   -0.46893704375716067
LJ  0.45836257405820141   -0.030420402009932606   0.46170289148456373
LJ  0.26181552624116716   0.21314988085747819   0.3808397193689157
LJ  0.30640336382801697   -0.11945207074365752   -0.11995807900181976
LJ  -0.33505248277467647   -0.13124242891307186   -0.03682579338831031
LJ  0.1277172462431421   -0.21316137331184659   -0.2664742446194866
LJ  0.28121030995510427   0.12803307367825165   0.029495245982627854
LJ  0.094674444172196517   0.026499601431322923   0.26159410421820239
LJ  -0.19677967915712594   0.097884911429240634   0.4917170259541036
LJ  0.15840729898673206   0.37830412495864202   0.28651306403194721
LJ  -0.056380610249763083   -0.17858249642305313   0.45332631386257138
LJ  0.33263983399340546   0.0012907097792916639   -0.1452820667495652
LJ  -0.41946525720777572   0.25347485732045977   -0.42998952082876468
LJ  0.12427646723787375   -0.15911792553785273   0.47069475490710005
LJ  -0.3000946195602246   0.0085421889111432694   -0.032188549577401353
LJ  -0.35628384783117162   -0.44776653455797449   0.455728310726698
LJ  -0.031207117275304171   0.051303528469184803   -0.10888152956139086
LJ  0.095599789560723167   -0.30712865429433767   0.13388223236975175
LJ  -0.39366653185535544   0.054578341943408271   0.3149971150354573
LJ  -0.11634385235091227   0.084752795412547363   -0.23420894976694862
LJ  -0.14355783219049412   -0.46424086125045405   -0.30359847807883911
LJ  -0.49493672451514015   -0.22830164739087092   0.038460297651336225
LJ  0.33156709378438504   0.40702245379431973   -0.26941813800931852
LJ  0.16658588816278569   0.15571503499757838   0.034690773042255367
LJ  -0.48770157992456181   -0.24747651815036253   -0.070727696221247596
LJ  0.43260924914326926   -0.24747275233854554   -0.24832443754481126
LJ  0.0029890413880414826   0.063257214600526593   -0.32030694895713746
LJ  0.1498977105086334   -0.088435509632601828   -0.40153411236283226
LJ  -0.49312469224152111   -0.3048229459539728   -0.35833119799788105
LJ  -0.08498438276758008   -0.38422977893961296   -0.29941179062279388
LJ  -0.25476506772073304   0.42560724721992116   0.10227505039821995
LJ  -0.32498332616121123   0.27118225240076654   0.46137671957810372
LJ  -0.19438336778627699   -0.34107561902433708   -0.47176485902042287
LJ  -0.35964303299038264   0.17458588105100017   0.49807556287096838
LJ  -0.32248903989232053   -0.031284952474871876   0.15614254671678746
LJ  -0.062021553155510466   0.10733667498631067   0.3353700979737263
LJ  -0.4732694655192487   -0.43211856704763879   -0.098078474417490444
LJ  -0.12275889914765072   0.29754903350132866   -0.38432365747241914
LJ  -0.13615240331357381   -0.065501233652827132   0.14391254216372967
LJ  0.032225859570282227   -0.33795098097885912   -0.27109821972304854
LJ  0.19603538718912164   0.038279352495629596   0.029713950588423986
LJ  0.13529657814901938   -0.039036471615539171   0.37583338300422348
LJ  0.39171652100864524   -0.49549817146041197   -0.26089004392473014
LJ  -0.2723538161865196   0.47913990551335522   0.03371411101251888
LJ  0.35438336865783437   0.38976835000784921   0.057749855333579632
LJ  -0.13931768604748121   -0.38550536708720284   0.42501929011810585
LJ  0.19876006882465627   0.19467653849530228   -0.26158879191545709
LJ  0.42189718660586101   -0.2681737346414983   0.035667771724800318
LJ  -0.14747054002844537   0.39743327822911712   0.18682120773346109
LJ  -0.14855608580196283   0.43688448410331876   -0.29026561952624214
LJ  -0.14347368189684015   0.15874814195599238   0.36283105927005255
