108
#Comment!
LJ  -0.40655632398459568   -0.14620424523061484   -0.15391315319134674
LJ  -0.26263200157408378   -0.20570281958829992   -0.1075115045103013
LJ  -0.18679156394255944   0.26035719392040169   0.259485016207051
LJ  -0.14886089028976227   0.4527271571021676   0.38573279531171123
LJ  0.15380020679610748   0.034976295917066462   0.14779519116358031
LJ  0.20861308684190075   -0.062853808537976813   -0.39347702583029648
LJ  0.40122892825741946   -0.10904545547416104   -0.098774328505646825
LJ  -0.47533658519809657   0.38092045533841618   -0.080013369689887051
LJ  -0.3605924576408856   -0.17501058987182097   -0.27579166789376891
LJ  0.47553528893224728   0.11637103162716365   -0.4619184646040555
LJ  0.41404630862641728   -0.46436269342285441   -0.00060980096924857178
LJ  0.023587201092572837   -0.32442029212609763   0.088480766945293138
LJ  0.18919352277847964   -0.013970076475349149   -0.47709814147678509
LJ  -0.36992337157884819   -0.41058189464811284   0.45530889444216394
LJ  -0.0039183247502272952   0.088974109769405604   -0.48425581561236797
LJ  0.075213611816510345   -0.16283415270484686   -0.3922527703332091
LJ  -0.48501214315288732   0.10027457152033521   -0.14226464621870069
LJ  0.42735422557425867   0.20961570679633112   -0.35329850728123435
LJ  0.049998699529513288   -0.1840680175910652   0.12828262365837267
LJ  -0.33488172153249979   -0.41928070483487662   -0.32607768341071186
LJ  0.13284849369210991   -0.038241268777693925   -0.36690591375862691
LJ  -0.18636219913342947   0.32927715138001085   0.47155678431512582
LJ  0.26245482737647668   0.039216158520756973   -0.34970529400672262
LJ  -0.11434816972950559   -0.34623125889131179   0.20751167077784555
LJ  0.1875446650098557   -0.029725762893461301   -0.16417827573596261
LJ  0.1256868129605187   0.20090808972281005   -0.4156124030462281
LJ  -0.10031002450305493   0.43883626356453143   0.051733802103020317
LJ  0.42338182084575204   0.45515742985343494   -0.47422978496891011
LJ  0.41772733961110692   0.39475213521164115   0.37869927947810528
LJ  -0.14957653042320895   0.14983654737060506   0.24816764386381651
LJ  -0.016626569336164732   -0.41909797546766131   0.23555234907470435
LJ  -0.39782259283953886   -0.28662319716831575   -0.11832574268952949
LJ  -0.28352426440805195   0.17077899023849996   -0.098709746507656723
LJ  -0.046779218123454057   -0.44953285634990009   -0.49082035480032105
LJ  0.14637169442141895   0.058661335062035941   -0.38245578153714554
LJ  0.33901982520884472   -0.010005248892975264   -0.15066952427674751
LJ  0.46475195588728824   0.48203251235669337   0.099399053007081614
LJ  0.35112234012764892   0.20810108440450872   -0.024101070192888971
LJ  -0.031007492713729046   -0.3837388962435313   -0.19253606272090423
LJ  -0.25280839788594095   -0.26455273636616472   0.11563782603652743
LJ  0.33009536805911355   -0.18781213135561875   0.14722814382955235
LJ  0.332919991212136   -0.3887930013208819   -0.49909592746249343
LJ  0.37180653840914429   -0.30295960484448137   -0.38118450513030389
LJ  0.10672304557601457   -0.22738777988956047   -0.48006704867077565
LJ  -0.10279962565415759   -0.44194919866908566   0.14246106468262223
LJ  0.025363208579217082   -0.26142461700686453   0.37374189679058201
LJ  0.17825093202734793   -0.33191233623781152   0.029356050723927531
LJ  0.20212637536382075   -0.30805777683066327   0.44941396161039271
LJ  0.13087849780160304   0.030438628647669764   -0.28475473978486221
LJ  -0.063158910477381064   -0.17592680933405774   0.30552062163820487
LJ  0.34524885774003339   0.38777216018227623   -0.15500356863838416
LJ  0.086031235693571198   -0.092660868020217182   -0.45334188256370694
LJ  -0.11581682745242457   -0.4322062602681811   -0.43209271649825254
LJ  0.49407140678990252   -0.11788447459403331   -0.12392332258794315
LJ  -0.092547950006061155   0.17650815331713143   -0.36689359835470803
LJ  0.13092786832450956   0.27624529792525643   -0.15151526953562666
LJ  0.093050605950480134   0.30071332673024675   -0.21732457689378365
LJ  -0.33774160644154072   0.49930787553596095   0.22083434914454705
LJ  0.2829155535842301   0.40152750701714024   -0.20726845790498427
LJ  0.20989379536877953   -0.30927128361915673   -0.43141489683968159
LJ  0.42211711762097653   0.44123917457857087   -0.20504906525103173
LJ  -0.28643325348828486   0.18546681932819584   0.014362320309316544
LJ  -0.23285833694586583   0.35956569970312896   0.16749840891348436
LJ  0.11321401859378191   -0.29606167083344465   0.23242037748064762
LJ  0.1054553509062811   0.26857174202943329   0.030826921913602177
LJ  0.39149936098558935   -0.2118573417951867   0.22148184974432078
LJ  0.23555090487726479   -0.075533718104753969   -0.24604890407944288
LJ  0.076596126324444597   -0.34555029136207499   -0.22809930202636422
LJ  0.4420310064148672   0.019509321065993731   0.2212099961741924
LJ  -0.029899999144507961   0.035859355444525953   0.26556640865107556
LJ  -0.044301221832384496   0.27909599640640698   -0.24156170284960302
LJ  0.27620716507625148   -0.27511474068061365   0.27095489513752219
LJ  -0.33199799157365856   -0.10364810998668736   0.27831128526084564
LJ  0.034356827161712795   -0.26154402087584216   0.48695195455932716
LJ  0.3012484122389838   0.37448999850411119   -0.37716830862999901
LJ  0.079261692797298014   0.20860563852688763   -0.23742011835993615
LJ  -0.29503231540085495   0.39156249313287994   0.11529217533557956
LJ  0.080244144586194013   0.32947436561344384   0.38206928720297234
LJ  -0.41233667238345517   -0.41264551483838219   -0.048901674113875526
LJ  0.4738773012586337   -0.041253722531700711   -0.077299158374404084
LJ  -0.42339025324061436   -0.030079348340465852   -0.48230766092348692
LJ  0.047385652782677777   -0.03735411769712365   -0.3338607220729819
LJ  0.1819508260281564   -0.34634565621602798   -0.1086942768272936
LJ  0.022677744178000146   -0.083143386712907968   -0.39545711610466516
LJ  0.38883276952870394   -0.24623025296403278   0.1502777960460939
LJ  0.17880766504223136   0.37726256234173716   -0.42714154343952965
LJ  0.17677765085074865   0.27314164157448489   -0.3784445833763519
LJ  -0.31901009807343295   -0.037437785812847992   0.3731192076113331
LJ  -0.3355787484343789   -0.26867067144769047   0.43697807228535712
LJ  -0.3957257051207459   -0.4547416636296745   0.024608826627480845
LJ  -0.37961427213822241   0.09046203227749966   0.4972345274646025
LJ  0.20670918896955842   0.33699079007658145   -0.037069809851438859
LJ  0.057650472855745163   0.14722629869179438   -0.43648113386966159
LJ  -0.44027260737916935   -0.099985267773633382   -0.2696820476391531
LJ  -0.38808455301165506   0.19807272606419044   -0.052198016149835623
LJ  0.19806039150810262   -0.074501406911836376   -0.042205666869666078
LJ  0.43291386332782278   0.2606792705109372   0.10035410674467392
LJ  -0.4110177351542586   -0.41230408574877431   -0.29947195028023194
LJ  -0.48608110540695226   -0.23587852736601214   0.14141612744884902
LJ  0.33132892847755385   0.31332583223870608   -0.24730741316206808
LJ  0.28199639496446605   0.046794285529566472   -0.097713222941528233
LJ  0.39228798613965737   -0.014756063981950916   -0.079288727049861285
LJ  -0.37744185560721177   -0.34138773749546597   -0.065702623679937289
LJ  0.48200114996187204   -0.22434700518275208   -0.43193502140011797
LJ  0.40250362823314112   -0.42338765671629308   0.42639932013545828
LJ  0.20783568204138961   -0.049625651145636107   0.08552538555856895
LJ  0.46056687614229974   -0.17728596928122339   0.4845607372749775
LJ  -0.15691795070467673   0.48331826521440946   -0.34342266669820914
