108
#Comment!
LJ  -0.25648983269430936   -0.2549085926103255   -0.23648832551449114
LJ  -0.16729988310019439   -0.1773145961528815   -0.25036404753705621
LJ  -0.23664486158979364   -0.16715874967320113   -0.1665410141895709
LJ  -0.16801717562765553   -0.25148548545586519   -0.16823472228358566
LJ  -0.048501856940251949   -0.22043459921195263   -0.26096577718418007
LJ  0.0014129551247676422   -0.1643595698221075   -0.24956774921578467
LJ  -0.089299705489011075   -0.16420303442093695   -0.17067946372580498
LJ  -0.035836747324208891   -0.26286629284609014   -0.17969674262629842
LJ  0.084135466838174341   -0.25091276100822746   -0.24899280607966376
LJ  0.16672130056987933   -0.16505961382545972   -0.25001715324355084
LJ  0.07671711018999712   -0.17791921771727387   -0.14918168223523029
LJ  0.16653056322174989   -0.24964079276662973   -0.16603589133278918
LJ  -0.24815838896610526   -0.084034435949988648   -0.25189197267158026
LJ  -0.16507283729314384   8.5018643409159669e-05   -0.24915999134295636
LJ  -0.25912813849027805   0.0014087721030709684   -0.16688941150064246
LJ  -0.16336227917149182   -0.10006589793523323   -0.16440893587914843
LJ  -0.077798199312465829   -0.058277713638263111   -0.24209734090093574
LJ  0.00014020705650190357   -0.00028894533227576081   -0.24944394389367749
LJ  -0.08099431762295331   -0.0035393058041660371   -0.16470542799988125
LJ  -0.0024982273363552726   -0.093302240730247468   -0.1696690972577736
LJ  0.083244960000856141   -0.082909633953696479   -0.25145781630043779
LJ  0.16204990129905514   0.0063314895361461588   -0.24760653140925418
LJ  0.081792271139931275   -0.0023028851033035222   -0.17236867630487371
LJ  0.17946082413921277   -0.095278743646888417   -0.18246964491228723
LJ  -0.25055299744021825   0.081575822409023641   -0.24891913876105343
LJ  -0.16666265505905228   0.16871288329930823   -0.25008832155998451
LJ  -0.24996502103451348   0.16645026267290497   -0.16671169345812339
LJ  -0.16497683457677914   0.084687478378826897   -0.16767245705739089
LJ  -0.082357211732848004   0.071749180234055299   -0.25195602872571354
LJ  0.00015120736279279498   0.16690229576934656   -0.24958697268775379
LJ  -0.083239168176288403   0.16947187982727724   -0.16651180584566058
LJ  0.0014326339926070257   0.085917430249587867   -0.16969242308895421
LJ  0.083051330987548855   0.082908534732719169   -0.24987297981062553
LJ  0.16691860178725204   0.16580815381995034   -0.24919446847279203
LJ  0.085366478432046547   0.16792938549611652   -0.16656916719981066
LJ  0.16592274826071166   0.083122635341564943   -0.1665751627174254
LJ  -0.24160140320793375   -0.24845274321899924   -0.083156187297980355
LJ  -0.16680954828614672   -0.1579727417192851   -0.082657992742752096
LJ  -0.24832336960285709   -0.16694884753517281   -0.0039353156488409497
LJ  -0.16800379156802994   -0.24964819526429602   0.0050151564111563379
LJ  -0.090471018400718015   -0.26792202736134968   -0.071412795497736006
LJ  -0.0074514558907189275   -0.16438266065235843   -0.087029066199042326
LJ  -0.086734109593096992   -0.17464882712973043   -0.012359524813668176
LJ  0.0043525212595234269   -0.25611054733856137   0.00066369668592079951
LJ  0.091715553430985475   -0.25263362890484264   -0.079471785172106763
LJ  0.16877888135026312   -0.17379991344261517   -0.086005970458009631
LJ  0.079166391788844659   -0.1770299459053663   0.018088945194135165
LJ  0.15985012088832187   -0.24220965337495665   0.0078100392878080677
LJ  -0.2564073131997654   -0.084846179604021243   -0.095639432865610829
LJ  -0.16616148463029989   0.00026392541212015048   -0.08247997494433558
LJ  -0.24286491336420954   0.0011722908888061644   -3.1530280262434264e-05
LJ  -0.1697173145664079   -0.079232618018788989   -0.0059747095542424106
LJ  -0.097200283491468212   -0.052208956600642904   -0.072949848052486346
LJ  -0.00079728188503543475   0.004943890126199277   -0.081862493359097274
LJ  -0.089841822654390183   -0.0033022491900571763   0.0020027309513920314
LJ  -0.0035622892382822032   -0.091939068947264987   -0.0084173615895497215
LJ  0.078306375923062221   -0.071494696710279332   -0.076140595784348244
LJ  0.16118201225741188   0.0061824618704701883   -0.080177246737692734
LJ  0.093476725876681543   -0.0016184194580146692   0.0076177715636794978
LJ  0.16513039959302675   -0.083792455501741706   0.0033522250571237466
LJ  -0.25103596873112655   0.08373133596495809   -0.088680473379807404
LJ  -0.16672947587089557   0.16674213321379799   -0.08345666197233563
LJ  -0.25051933964998335   0.16696823840598993   8.0547101298233392e-05
LJ  -0.1660867300103695   0.074029036841801843   0.0088637951335883824
LJ  -0.088078277460296062   0.080883866617745229   -0.076082990777811277
LJ  0.00034663956625333045   0.16467106381429522   -0.083050238462828205
LJ  -0.080173962489568762   0.16921855794058754   0.001579264651558971
LJ  0.0070937348648429681   0.084077736906450637   -0.002587954960480753
LJ  0.081134136181008065   0.081659588593949936   -0.08554555325750493
LJ  0.1687948433297756   0.16798859924879367   -0.085874213309753158
LJ  0.081992874865731563   0.17701236015172109   -0.010020071597489471
LJ  0.15755343206904177   0.081512941583169213   0.0021311336971937245
LJ  -0.25384787856145402   -0.25390587459081032   0.074293934154997077
LJ  -0.1647567422010284   -0.17039185272202434   0.08490903189311326
LJ  -0.24968285874361637   -0.16416900251535066   0.16026966886446856
LJ  -0.16677024985956942   -0.24904507772495796   0.16529156900354974
LJ  -0.085139383681632555   -0.22728062633844651   0.086288362623657272
LJ  -0.006009206941161002   -0.14009345515673124   0.072389526373878771
LJ  -0.085889140654926532   -0.17218484717507668   0.16188370936864979
LJ  0.00075168840533438122   -0.25348181920620516   0.16754261784300334
LJ  0.098192492678568832   -0.26249112842389838   0.086433999526013883
LJ  0.18146084686547323   -0.16869350292213411   0.079713312707020936
LJ  0.081657009224165744   -0.16691582695790583   0.1672208206672807
LJ  0.16430263204159734   -0.24568668475208311   0.16360644542020716
LJ  -0.24905344925286629   -0.088111191231379823   0.090533131271469378
LJ  -0.16409031802995855   -9.0786123863770011e-05   0.086547476969176973
LJ  -0.25325694199268606   -0.00093162911921475374   0.1658931409471272
LJ  -0.15155054552965697   -0.088711918564344627   0.16754467846608728
LJ  -0.075242215908980101   -0.081912248787472303   0.080432291105778597
LJ  -0.0010361014010530673   0.0025253925272375193   0.081480599716823657
LJ  -0.084503940745258493   -0.0041527567076242817   0.16574788835770077
LJ  -0.010716325844198325   -0.077231447164833045   0.17228969706632238
LJ  0.089128481916256816   -0.084191258009068917   0.082267559997194414
LJ  0.16964903373166862   -0.0031766588974909637   0.077163724290849514
LJ  0.079546272633408299   -0.0054394800326362054   0.16043485282432099
LJ  0.16485777474487476   -0.075829600627789914   0.17515363904600131
LJ  -0.24938750983365054   0.082844762537724673   0.079553821739714925
LJ  -0.16621269481218415   0.16347823302653133   0.083060695772613963
LJ  -0.2499904659071063   0.16684716125376325   0.16700102371542339
LJ  -0.16580842170490148   0.084027135477671655   0.16537074221222742
LJ  -0.083025668153751023   0.086796214926237694   0.083826108043591016
LJ  -0.0014124943236767369   0.16303190709301238   0.086132764604526027
LJ  -0.079016849923177174   0.17125075148531579   0.16522643421324784
LJ  -0.005081092058911935   0.074792885932385492   0.1762716398667879
LJ  0.076550513120702962   0.083401451760863665   0.08023179734344521
LJ  0.17335646020708487   0.16464862284266377   0.084310174935407295
LJ  0.083832767989726387   0.16860914040237523   0.16858842927498635
LJ  0.16969881159314751   0.084203247886215471   0.16517415756875004
