108
#Comment!
LJ  -0.25625940424074228   -0.25490689738534045   -0.23653438472524327
LJ  -0.16751579085488244   -0.17725977904052997   -0.25036953523985561
LJ  -0.23670860966244814   -0.16693415265771785   -0.1665456417356953
LJ  -0.16800047450996841   -0.25170491348205426   -0.16823680991390927
LJ  -0.04858207558323565   -0.22043114884968965   -0.26075430710028841
LJ  0.0013050396003469009   -0.16447896885970054   -0.24979155750282134
LJ  -0.089051997262839619   -0.16422474428790468   -0.17065960109504316
LJ  -0.035876574352285244   -0.26274441556119393   -0.17962845752820752
LJ  0.084130514009903248   -0.25068887736330625   -0.24899041358921756
LJ  0.16671807326827737   -0.16529040185175928   -0.25002051080733301
LJ  0.07674000667274615   -0.17790544906679548   -0.1490014975298774
LJ  0.16653128953170818   -0.2496429301798222   -0.16626009954087878
LJ  -0.24794333049609957   -0.084046629424667271   -0.25188313976905563
LJ  -0.16530236208548016   8.1754019379993436e-05   -0.24915801006032159
LJ  -0.25908782220214582   0.0016188038965552342   -0.16689119745716666
LJ  -0.16334164994892902   -0.10025092679129628   -0.16442387615701479
LJ  -0.077821041090898505   -0.058391518940191116   -0.24189811901688157
LJ  0.00014704553652860269   -0.00028706804155591688   -0.24966830455066388
LJ  -0.080787006600487071   -0.0035158497775831252   -0.16470968131895194
LJ  -0.0027097189430306643   -0.093269148225253243   -0.16964592918584304
LJ  0.083244089546838859   -0.082693756343160257   -0.25144944505607186
LJ  0.16207898071737209   0.0060815794891869359   -0.24763144989800831
LJ  0.081795872893861601   -0.0022898580876392258   -0.17211737180195524
LJ  0.17940691544593473   -0.095226658983414869   -0.18261872061238307
LJ  -0.25033112236655225   0.081592773004416475   -0.24892357340474799
LJ  -0.1668812799318343   0.16870068296253946   -0.25008798079585548
LJ  -0.24996516061808621   0.16667201147026803   -0.16671210771382189
LJ  -0.16499739420074877   0.084470365497356023   -0.16767027298271628
LJ  -0.082361581146768253   0.071800960627673674   -0.25173220172931676
LJ  0.00014944593262294814   0.16690170792612508   -0.24980827950716736
LJ  -0.083018892361975904   0.16945246146344548   -0.16651249045581951
LJ  0.001206781219131035   0.085904629596559604   -0.16968120896001582
LJ  0.083052563468050983   0.083131621688426291   -0.24987425615571499
LJ  0.16691661416931874   0.16558995915179964   -0.2491974221662577
LJ  0.08535676497011889   0.16792504445291176   -0.1663539081478152
LJ  0.16592559398348081   0.083123104596205685   -0.16679499104169734
LJ  -0.24139788227780798   -0.24843907624500414   -0.083153168628451443
LJ  -0.16702899612484964   -0.15802727819749215   -0.082655802972548917
LJ  -0.24833329919286284   -0.16672014616033243   -0.0039212283723059262
LJ  -0.16800074546129426   -0.24986805887859168   0.0050065376012719221
LJ  -0.090445091648809359   -0.26786137516340203   -0.071240728815758173
LJ  -0.0073999700248981969   -0.16440676735663215   -0.087232145063004182
LJ  -0.086537955009097042   -0.1746357665019358   -0.012361296490713864
LJ  0.0041118198236731055   -0.25607321765074248   0.00067581071117413423
LJ  0.091664130766451676   -0.25239411107670917   -0.079485076091196857
LJ  0.16876412685223716   -0.17398525734908454   -0.085984314339807161
LJ  0.079164957065283453   -0.17699300670456522   0.018253580992759991
LJ  0.15987194563439255   -0.24224073112339586   0.0075525180494956743
LJ  -0.25617415310408659   -0.084830069445489792   -0.095598135904995177
LJ  -0.16639045147625886   0.00026551612188203179   -0.082491393919698119
LJ  -0.24289927570329908   0.0013913229644504244   -2.9801704269006514e-05
LJ  -0.16970479850338901   -0.079462345044793936   -0.0059521509829962415
LJ  -0.097151281774191689   -0.052343589906826422   -0.072769904477394468
LJ  -0.00079905645039477966   0.0049213352266294832   -0.082088108749556105
LJ  -0.089585057350643288   -0.0032633880066227565   0.0020003292552566274
LJ  -0.0037517886891298277   -0.09194975590851158   -0.008328796957477496
LJ  0.078317122702671327   -0.071323815148292669   -0.076173295039902833
LJ  0.16120737707778854   0.0059391761084713248   -0.0801956185504374
LJ  0.093438034379989404   -0.0016229843022588497   0.0078164503443037842
LJ  0.16512954692344312   -0.08379572806376516   0.0031163865077352203
LJ  -0.25080915217153849   0.083728784931414335   -0.088654445336694213
LJ  -0.16694928826710134   0.16674063582234691   -0.083453963787185337
LJ  -0.25051779886838077   0.16718753901120248   7.9987623117526129e-05
LJ  -0.16607720628305214   0.073832129644400626   0.0088318034771253644
LJ  -0.088063960624084947   0.080899253169557026   -0.075902046995673988
LJ  0.00034177890527793209   0.16467886403864002   -0.083273430960192893
LJ  -0.07995989706578932   0.16918870588889376   0.0015813465483142909
LJ  0.006842157879332204   0.084072011294945723   -0.0025743084281229516
LJ  0.081145511988553382   0.081885072333968009   -0.085538249992965582
LJ  0.16877971007759962   0.16776613936680917   -0.0858667234938051
LJ  0.082007934415519387   0.1770004708195225   -0.0097851660101348839
LJ  0.15758381545554501   0.081522162226089434   0.0019062757787918264
LJ  -0.25361982184629339   -0.25390610116215134   0.074324238714006521
LJ  -0.16498685969553303   -0.17036306711274443   0.084898245197893588
LJ  -0.24966054487357997   -0.16396553194514757   0.16028510037110158
LJ  -0.16677305344812363   -0.24927171042909566   0.165291673417688
LJ  -0.085123203448173562   -0.22736016743986173   0.08649903294024619
LJ  -0.0059338748810537616   -0.14015925647291297   0.072176443179297584
LJ  -0.0856504372320403   -0.17215253364241268   0.16188774244178364
LJ  0.00052860083710056785   -0.25345620350090337   0.16753861830763478
LJ  0.098137427660104928   -0.26220736282443924   0.08642448230143765
LJ  0.18138454075091079   -0.16889744211004573   0.079729362648393337
LJ  0.081657030292313526   -0.16691431108402274   0.16743582019518896
LJ  0.16431899147745124   -0.24570565135349148   0.16340209856715035
LJ  -0.24882964018554973   -0.088077772328487333   0.090505517158637722
LJ  -0.16431891438756799   -0.00010434893090196776   0.086544486895065109
LJ  -0.25324069404883776   -0.00070950592395653057   0.16589270297940481
LJ  -0.1516208080118564   -0.08891716648203378   0.16754211043095765
LJ  -0.075285369563238405   -0.081910977961987166   0.08067007811949585
LJ  -0.0010369855159815034   0.0025213536679961012   0.081266034908613047
LJ  -0.084275150320444248   -0.0041189212854201252   0.16574734490093204
LJ  -0.010890658323239965   -0.077270406007243581   0.17226858017938448
LJ  0.089108004808843913   -0.083968806664583506   0.082276003631569117
LJ  0.16965305260975785   -0.0033716997506298731   0.077193883338682587
LJ  0.079551392850024702   -0.0054234298046948719   0.16066784060746303
LJ  0.16487165645247373   -0.075859892940348214   0.17490465052430068
LJ  -0.24917067033430881   0.082836601347310565   0.079570834336220544
LJ  -0.16643493559860106   0.16349631607474879   0.083060730141972891
LJ  -0.24998971944003973   0.16706680906085275   0.16699943386552804
LJ  -0.16582073015798923   0.083805039784864699   0.16537659248258446
LJ  -0.083034089868923758   0.086778819160200651   0.084046322077194313
LJ  -0.0014060484834075104   0.16304041861672633   0.085905514640537112
LJ  -0.078811299498873069   0.17121776794158355   0.16523805582774695
LJ  -0.0052801421574306196   0.074832354094998152   0.17624049261990626
LJ  0.076596153398018896   0.083620011256998014   0.080247550330864129
LJ  0.17331523008685812   0.164432314900018   0.084308214908960621
LJ  0.083832245467786046   0.16860065045565381   0.16880033263107352
LJ  0.16968415821078592   0.084197793429978296   0.16495886349842415
