108
#Comment!
LJ  -0.49943355378450999   0.49596959126356915   -0.47789033191373537
LJ  -0.34144785458368054   -0.33153174263298957   -0.48196945443471972
LJ  -0.48544916896810525   -0.3307213945344179   -0.28762311931649853
LJ  -0.34685766147915043   -0.49593958508710018   -0.30907687969031133
LJ  -0.17376094564301184   0.48382847497248349   -0.46873885167485257
LJ  -0.035862243493262475   -0.31688265501141116   -0.46346235429642901
LJ  -0.18103447602106834   -0.34530230358708258   -0.3016999482739719
LJ  0.00062266697301921882   0.49154726870079551   -0.32738052041635729
LJ  0.15422980632417818   -0.49540150871512278   -0.49432904889015217
LJ  0.363243192493231   -0.33544577188510066   -0.48467514935574374
LJ  0.17880690639476549   -0.32955945723291319   -0.33011307450129368
LJ  0.35945915065478573   -0.49254174193807154   -0.32174475451486495
LJ  -0.47712167869992123   -0.17554362246585942   -0.47750476704064149
LJ  -0.33681507474696637   0.016960693818441192   -0.47846985899887989
LJ  -0.48475239407678372   0.0048089040154554816   -0.31695853581333494
LJ  -0.32887124446147614   -0.17240853316382315   -0.30937472326510762
LJ  -0.20063193844846872   -0.16213253377299436   -0.47601956745881041
LJ  0.017948748751423025   0.017001553852805995   -0.46828932917646715
LJ  -0.15074684599961177   -0.009769657189083349   -0.31463635095512466
LJ  -0.0053762232375309587   -0.16677234082942305   -0.30196952653064663
LJ  0.17773751673909929   -0.16481563276714686   -0.4693469390409904
LJ  0.36151488649937996   -0.017667556337786758   -0.47198605218667578
LJ  0.18583831927984032   -0.02447343616960004   -0.31348628726489858
LJ  0.3606065154641363   -0.17043795766667846   -0.30663141637638675
LJ  -0.48221155955235573   0.17665830565196866   -0.48840406066401076
LJ  -0.31443045994740859   0.31683984662763098   -0.48101115325062577
LJ  -0.48545040262464717   0.33672878024197384   -0.32545467404353523
LJ  -0.32226351141253395   0.15832861143587523   -0.30468859268054921
LJ  -0.1598838251646619   0.16766135623607401   -0.48124981730578781
LJ  0.0017311460202874358   0.34378325676478849   0.49239776277672803
LJ  -0.16278939908206733   0.33521599936415769   -0.30970438462967359
LJ  0.014129636913056718   0.17785246301449409   -0.3199060212145135
LJ  0.18867612669520548   0.15976214440264241   -0.47968835966707479
LJ  0.33757989890619811   0.34663213489201428   -0.48360456369095922
LJ  0.17050603424645855   0.34099504548016019   -0.31892142385744782
LJ  0.3387043664234744   0.18907363845865396   -0.31103997342086814
LJ  0.47826940419656244   0.47910131554884283   -0.13625729794988486
LJ  -0.32535013734419066   -0.35007817498509886   -0.13476903656693609
LJ  -0.48320668781250653   -0.33988313948769627   0.0086552952155064585
LJ  -0.33562960211456194   0.4777331397752132   0.013318884795734558
LJ  -0.14388691820288696   0.49635805335300059   -0.1447347064677619
LJ  0.013392457097437371   -0.36284812675428152   -0.18615132898776543
LJ  -0.17461348844059332   -0.34275118702896945   0.021390157785238676
LJ  -0.011137475974581094   -0.49790697433135711   0.013504806041467629
LJ  0.17061006853139346   0.49866238295695503   -0.15490655228700462
LJ  0.329377244252333   -0.34672516727244695   -0.14598688261374126
LJ  0.14351232503947925   -0.33746942122051771   0.024394542615934219
LJ  0.31709349580304225   -0.47950803699421191   0.028505717287245293
LJ  -0.48021841368954227   -0.16378111071117896   -0.15373191094355421
LJ  -0.30789013396412596   -6.1885787560076569e-05   -0.15694351342061766
LJ  -0.47030957890055586   -0.0036909151443446533   0.022228524752313444
LJ  -0.32761105966714366   -0.17779768259543685   0.020691978980155182
LJ  -0.15941433283553896   -0.18519613251059333   -0.14590067984102664
LJ  0.00045912111579029179   -0.016892385400576911   -0.13957514599482107
LJ  -0.16914215430993496   -0.00675153338127532   0.031036957098506016
LJ  -0.017806095069747164   -0.18075373072791251   0.026373154985849852
LJ  0.19321289683780191   -0.17624251058823404   -0.14513561751511975
LJ  0.33390734862583088   0.002186260812202264   -0.1356851233386181
LJ  0.17008842592089143   -0.010786713657396687   0.033658369477453862
LJ  0.32805378292271359   -0.173951521405905   0.02863678957561747
LJ  -0.49587436271298146   0.14877269594418507   -0.13715454121572054
LJ  -0.32395327284490727   0.330538673117654   -0.15151810009008132
LJ  -0.48417685505987579   0.33023106990118994   0.012570682504305652
LJ  -0.31430012917032352   0.17200838663864851   -0.0017921574290193953
LJ  -0.14856905134119455   0.15947082860366021   -0.15883392132693014
LJ  -0.00054213660651235317   0.32464084416234679   -0.14348162538809428
LJ  -0.14886406228119639   0.33187878719206304   0.0061141317916131423
LJ  -0.00085207519532643991   0.15357286179850482   0.032456434597119298
LJ  0.16302976173304187   0.15593092893633159   -0.15884205121027431
LJ  0.31578432411080448   0.31617174892742606   -0.11051179299097469
LJ  0.15663164231198232   0.33512744478988693   0.027516712706038251
LJ  0.34698030663609614   0.15707835204924381   0.034719708916436727
LJ  -0.4944837813026226   -0.48897763013467849   0.1719518670765236
LJ  -0.34289581826893084   -0.33850648245451281   0.17905977789691341
LJ  -0.49100585056771701   -0.35668447233647305   0.35083156793819309
LJ  -0.32524268189527267   0.48873766606082053   0.37209024782189482
LJ  -0.17347801184233763   -0.48675757640906547   0.18382144460433253
LJ  0.0044933382233028479   -0.33111860808255833   0.20518464219492882
LJ  -0.18440570632119982   -0.30599282530465238   0.34170224287975487
LJ  -0.0041568263007921479   0.4876637585412758   0.34615347339977587
LJ  0.17029390397490943   -0.47938269248632104   0.1885037251998225
LJ  0.31385074792650375   -0.33345254546079828   0.19767611274508293
LJ  0.15329194372881627   -0.33412150468622243   0.36669641438409784
LJ  0.32313585356498731   -0.49064579298449046   0.35826472872870774
LJ  0.49288043828217154   -0.18229742062265969   0.19043964488197795
LJ  -0.33236439684676888   0.0042490962343868207   0.19604086936699247
LJ  0.49875156189371755   0.012160775266530834   0.37161703270009422
LJ  -0.3397503127568603   -0.16204696694447598   0.34564465820994883
LJ  -0.17841588649194234   -0.16158456249768038   0.17592547246247053
LJ  0.0055826396547007063   -0.016421971545775065   0.19218382786373617
LJ  -0.16548425534614258   -0.0095915765378473319   0.37875018027939489
LJ  -0.0063858549665410502   -0.14884537799916955   0.35840673577862686
LJ  0.15493681253241956   -0.17105418810005871   0.19179479140938241
LJ  0.34833873239780194   0.001016741160233275   0.19078019195414123
LJ  0.16109999529569408   -0.0079757310449343512   0.35056018262203692
LJ  0.32677207185717794   -0.13730629935682953   0.3638293721863643
LJ  -0.49099033337715503   0.15308453392859209   0.19263782444332239
LJ  -0.32074521672491768   0.31511095221448326   0.17866646250019189
LJ  -0.49764429045107877   0.34458414297042383   0.33849351371479675
LJ  -0.3191559059296612   0.16703141911679587   0.34221298418923435
LJ  -0.15211364173988487   0.13411269564718092   0.19491357209281851
LJ  0.0058740245933170069   0.32654051031867298   0.18057824478935466
LJ  -0.1526099822035214   0.3006751542467711   0.33227186860739116
LJ  0.0017147641574086772   0.14252906168471022   0.3566506051551861
LJ  0.15453086236211266   0.15279487577356196   0.19005297062963342
LJ  0.33316456270910011   0.33647901941272496   0.17387244633085061
LJ  0.18503371450191597   0.33015926295558351   0.33670105188919591
LJ  0.3408935758250542   0.17123857946666213   0.34465765374237306
