108
#Comment!
LJ  0.4303389430570656   0.024785103674786403   -0.40006424551302239
LJ  -0.35418333116467782   -0.27763303225957842   -0.40433879343110635
LJ  -0.43844138528143012   -0.1021611537511023   -0.11289434652984159
LJ  -0.46515851909321071   0.29115265318655265   0.19625572702289368
LJ  0.49500050990077965   0.38481505185335962   -0.39070441214295276
LJ  -0.43541555693794826   0.041281085442002222   -0.44747026355877001
LJ  0.2886550547239245   0.36588765583878674   -0.2982963539747483
LJ  0.32332514899433773   -0.26476782670866894   -0.17210250322419779
LJ  -0.27944310174500769   0.333079600928048   -0.34027382105785509
LJ  -0.19653368684971534   -0.050707997459830567   0.23035960047348653
LJ  -0.22715091578651769   -0.39482300956518795   0.43697268923214799
LJ  0.49518308159398605   -0.0050473265439978134   -0.35450062364597812
LJ  0.29067056879439146   -0.41328674570770851   0.034510326251947727
LJ  -0.13524063687546053   -0.40618376426887226   -0.15058781480905445
LJ  -0.17211722986592029   0.046311956367745516   -0.24413312512743821
LJ  -0.38904127879105388   0.15846112232103435   0.26186809005955336
LJ  -0.43570009173337881   -0.016971226806041451   -0.29289935000168388
LJ  -0.2192232244747922   -0.38227844521713689   0.099099438525054137
LJ  0.12402420432278974   0.31476120026211646   -0.23721000071021317
LJ  0.27430998528175715   0.39561376709019275   -0.46379397394578747
LJ  -0.041835058050119826   0.11465601364471596   0.039759816840520185
LJ  -0.060226862699290895   0.15001487066034228   0.36699627608589991
LJ  -0.14921989894762033   0.091587739988544831   0.0048561263026017194
LJ  0.091094644678366157   0.47273795918575917   -0.035897859996263617
LJ  -0.16147107553064394   -0.3577790930491983   0.36822983151320016
LJ  -0.41225288844499519   0.27700274752227771   0.28919502671615893
LJ  -0.17484716677454695   -0.37335518508607346   0.49213129202980971
LJ  0.25776425306985895   -0.38264614184731838   0.4203623914992044
LJ  -0.27325798953378283   -0.032680525963115423   0.19046441679761231
LJ  -0.31078529353140338   0.35799915999128828   -0.24972803990879874
LJ  -0.25984043641034421   -0.045773935539271476   0.079424710879859611
LJ  -0.20568347772082479   -0.30762317486074309   0.1558217519475342
LJ  0.373313453441944   0.089249253938871287   -0.39578872411552884
LJ  0.43622101479267916   0.47091783818344984   0.064983576924024358
LJ  -0.47096133956840419   0.30504736130538518   -0.18279227165484369
LJ  -0.25849694038163973   -0.24045749155875981   0.19332435467189296
LJ  -0.13912422995142742   -0.19386859757368796   0.14583680933103643
LJ  -0.035526976577304532   -0.14679707809514603   0.38205271148712833
LJ  -0.41026415434783026   -0.047237498136941315   0.40899751197329126
LJ  0.37141217940834625   0.35158200859366012   0.1491865287882066
LJ  -0.46489821307062901   0.0067837154260550793   -0.15382551728701277
LJ  -0.0098075458333097484   0.26296644980682021   0.022219024581702065
LJ  0.39355171099187658   0.31955411618682311   -0.32936586460344119
LJ  0.40532745131857928   0.42618914511928729   -0.40342215382936136
LJ  0.32822564597539122   0.12473638874992757   0.32622584437114072
LJ  0.4318124869222032   0.40917814453725265   -0.14739252127414504
LJ  -0.32499217870647695   -0.20298078399041897   0.48244281794055716
LJ  0.14743840991442722   -0.46699500917887449   0.18853944447853385
LJ  -0.037380559164340542   0.22029652863091781   0.33470173417921512
LJ  0.44025101587357485   0.29967205960955062   0.23403495600083876
LJ  0.369151394850526   0.35087750585662292   -0.10045819530172018
LJ  0.4828753955992568   0.16543015646427298   -0.47258433693182578
LJ  0.18923108904236499   -0.25388997084828235   0.45501610891518951
LJ  0.30723207301359512   -0.32170539793541197   0.46817516075479343
LJ  -0.012284250846371915   0.29552786912320211   0.16044913440247019
LJ  0.3289205291247741   0.36543527419570271   0.3880896878053704
LJ  -0.44676151844647982   -0.17481646334803866   0.076661141508946054
LJ  0.11350456480456103   0.38962736779682516   -0.022773764331719064
LJ  0.43773996686294825   0.19507824409686822   0.2958644820390266
LJ  0.10304961513075883   0.13822369659712866   0.31635125444071849
LJ  0.36095972726614123   0.22628346314072847   -0.43693369205878746
LJ  0.24096233714201629   0.35040021661635717   0.41022445276555108
LJ  -0.47144964068220108   0.18603119254285075   0.3725849342571948
LJ  0.28758703037560263   0.07073123375284962   -0.30970204692214753
LJ  -0.27744871080481165   0.43016446497689165   0.18229341650434991
LJ  -0.14395889898468658   -0.12648217682627641   -0.095242066476597012
LJ  -0.19700543615790031   -0.45513381114050938   0.38871759835045805
LJ  0.33050845472987833   -0.38771222851804504   -0.46097060708807519
LJ  -0.24656381384857884   -0.2420816399746693   0.48521455310478812
LJ  0.046394300787648175   -0.098743155786262624   0.4293931001782168
LJ  -0.11626477378934978   -0.42615656924249296   -0.054672996860697404
LJ  0.457163343182034   -0.27690929139035531   -0.44729891361474805
LJ  0.39228198696876332   0.17633868932591856   -0.18296394830539081
LJ  -0.10214345149950126   0.33279236452135241   -0.34775548183441024
LJ  0.21610371061759165   0.24252543851867189   0.46357653412062549
LJ  -0.30799348972673818   0.027080225663522868   -0.074731885898755693
LJ  0.41754470254833764   -0.29530767169629318   0.27654042884582669
LJ  -0.058922125530823578   -0.37449783375398654   0.39642641650523763
LJ  -0.42752783944919859   -0.32274298293166537   0.26352591539260112
LJ  0.092431818070543834   0.10152691975887729   -0.39540835066118118
LJ  -0.4861870744995942   0.23114598921005439   -0.39896563204202429
LJ  -0.19703538272093071   -0.31992355996146538   0.43766375705376215
LJ  0.18909905329233792   -0.41111799876638055   -0.16276749862438511
LJ  0.43025914790255526   0.4415482898201839   -0.010032092276555316
LJ  0.0997379798190689   -0.024767465833543601   -0.35415740021489894
LJ  0.08122793221530597   0.40782192055946515   0.32594303661137108
LJ  -0.33297703885070579   0.23413735830698143   -0.45313600570843182
LJ  0.092405936818483358   0.35278498529447516   -0.34622878744389679
LJ  -0.31770251399362415   0.41996888372012087   0.10525033246927783
LJ  0.019265069005166627   -0.37656460063954228   0.1253851655893283
LJ  -0.37685469491447099   0.29706898762726619   -0.44475039320527199
LJ  0.31360220810099088   0.46518686419033706   0.27217891788234672
LJ  -0.12842119158781162   0.18976328945387169   0.3278951482472936
LJ  -0.49113724808966025   0.35233212559449406   0.11345753666245809
LJ  -0.42158427105764884   -0.39456189150068283   -0.14562201269515945
LJ  0.25800680371862023   0.3069076544065471   -0.44485358187815033
LJ  0.35175790816052049   -0.35925184677208488   0.010613195530659517
LJ  0.26174672214645761   0.12640760722446356   0.018384546959961761
LJ  -0.076816712656364236   -0.013685918660515824   0.039136003248910187
LJ  -0.32360236494610534   -0.18752118793418837   0.39462035519339983
LJ  0.41348939082213337   0.19332584088256957   0.38663276457439921
LJ  0.080406926667786052   -0.055061050515126032   0.20222539488508851
LJ  -0.23399217293712687   0.34633518844301092   -0.42906247398575792
LJ  -0.34583707928853785   -0.081912038014006872   0.011004140624775482
LJ  -0.089639661648151139   -0.32679885679228787   0.45239155393514791
LJ  0.2478379460555459   -0.24164035432101519   -0.42488439693632435
LJ  0.44471849433564914   -0.36146183154490974   0.40080506708133001
LJ  0.27543512541790177   0.26763701942578239   -0.14847036280835016
