108
#Comment!
LJ  0.1451416450185572   0.35011072763422918   0.21639891820366025
LJ  0.26610147295823716   0.18622574960691454   0.25265844943999893
LJ  0.29694486177136298   -0.0038120637209208413   -0.11594313078457137
LJ  0.46909393641388947   -0.48342485466766416   -0.23765784744768145
LJ  -0.049339464721794297   0.33381390139930728   -0.23149260414912995
LJ  0.21499911618298026   -0.45401870615732054   -0.46777861110340113
LJ  -0.16614296712878729   -0.02979367552605594   -0.35447778962118565
LJ  -0.062858762330632367   0.23872511282927297   -0.046750730764026943
LJ  0.22763486675403277   -0.16703534698541495   0.00038678085303742182
LJ  -0.3085042110236641   -0.44345940465811007   -0.14418550303452304
LJ  0.26445738669475438   -0.014131115340883346   -0.30439719450854202
LJ  0.091494267916968103   0.2770952818617004   0.40881963883291766
LJ  -0.23668282323305906   0.046826389655852195   -0.14208677795997279
LJ  -0.25960097927036857   -0.11394850485534515   -0.018063983597553342
LJ  -0.1444964001576472   -0.47303334341224973   0.26898098122109498
LJ  0.22440223380955973   -0.44086920171561478   -0.099622390947688474
LJ  -0.3376457777685683   -0.24515626327145493   -0.3842947995413275
LJ  -0.3795037524883767   0.068824779305383305   0.23469421172773652
LJ  0.26543470025212784   0.47013395718454537   0.1140687987424622
LJ  -0.096770039910273373   -0.12841626741080653   -0.14311159842534443
LJ  -0.47429208818749724   0.043745981339320353   -0.087320111552726301
LJ  -0.35179517495052609   -0.062301388406497002   -0.4875257220631381
LJ  -0.3994463796550981   -0.31953262718876008   0.42940879142739452
LJ  0.22335216791667092   0.25117440612971492   -0.43683355172767291
LJ  0.45453601590410625   0.18559068952847751   0.16579268407199665
LJ  -0.08552564441779123   -0.47807174168579292   -0.31016231138681605
LJ  0.020965267649192841   0.14508021282175582   0.19515804800875172
LJ  -0.092023969012561893   -0.27744469177744985   0.15861783654805606
LJ  0.45564500813810166   -0.10231973036296006   -0.4199457254583176
LJ  0.1945567426199632   -0.22526503540255186   -0.18690843965902151
LJ  -0.44835721946775747   0.32653523407935475   0.29837725589860142
LJ  0.050869530160516478   -0.078219125156728103   -0.27657660194033307
LJ  -0.3721053280851514   -0.35174387259027101   0.02860947841110446
LJ  -0.4468760999824305   -0.29565814386958045   -0.20435823612303847
LJ  -0.17202872471515615   0.10976564281679435   0.21996895183482165
LJ  0.41559981760674763   -0.2266059797429664   0.40182282370321276
LJ  0.42185011448484927   0.12128060168459319   -0.27179301695074387
LJ  0.40210390965225523   -0.42689485717425563   0.33304897599131772
LJ  -0.019617394318352167   0.45233861571630457   0.068718806899464621
LJ  0.14116236623576528   -0.31823782957390184   0.096829131495532628
LJ  0.46661360583595618   -0.21342256678775462   -0.036735584490418631
LJ  0.097850321748899849   0.48618358391122929   0.35376317088268483
LJ  0.44657232370744099   0.22018262693109275   -0.043087200462769412
LJ  -0.0072289092894072624   -0.35965881812592482   0.3247244855784211
LJ  0.28006969037965518   -0.084158718177985606   0.47323357465092181
LJ  0.20446705741369828   -0.25905143701862682   0.34429489874284053
LJ  0.38846175825287332   0.26858911013228648   0.45948546571025478
LJ  0.46742658482384536   -0.34222586970841007   -0.42326978767327456
LJ  -0.49194898777788881   -0.29853614083572916   0.19801238498321483
LJ  -0.036071473565051651   -0.48252534397112223   -0.12490790664942743
LJ  0.11261002317985096   0.13374051191072645   -0.33607107458865726
LJ  -0.2417312811248743   -0.13646687888148679   0.21487845763615498
LJ  0.33526795271163817   0.39431174234296285   0.32179558388587404
LJ  -0.34583169541257397   -0.12802171352569591   -0.21346659764525125
LJ  -0.0059998708413168062   -0.4042327016751483   -0.4717036363502527
LJ  0.25017048778468365   0.4513773793332308   -0.2700086614731525
LJ  0.096672016361568733   0.030821738474859715   -0.11241200584492619
LJ  0.22040693780616544   0.25150725203289548   0.045945093988065427
LJ  0.27379873641104113   0.21835076459288502   -0.17380303534289193
LJ  -0.30274208321151019   0.45119311172214682   0.41669863639842808
LJ  -0.15184198757167899   0.33822154370642532   0.19927326167656625
LJ  -0.42462690720101021   -0.10135886218988621   0.11518761111636616
LJ  0.47979735327389955   0.13545605600536301   0.36659139796683654
LJ  -0.42873940550022527   -0.12426904002923357   0.33120534464458451
LJ  -0.067125124120764587   0.094234939711114366   -0.20386286243019888
LJ  -0.063205230560381839   -0.23271820636254531   -0.37575391340232472
LJ  0.035204370184388843   -0.25543887629567441   -0.076442069818630914
LJ  0.40028018132230264   -0.15301655289367444   -0.23841187218620355
LJ  -0.39922917834611449   0.3580177953775962   -0.26809790586023791
LJ  0.084629712836012297   -0.39001521063978989   -0.25236450222787343
LJ  -0.080302542231865739   -0.012650875666694282   0.33710765823873712
LJ  -0.1704875039953751   -0.31819270080147943   -0.0252419463194541
LJ  0.130613836432594   0.38052469413722179   -0.097686883866922578
LJ  0.054895611668992317   -0.15797542661826747   0.23997348180851588
LJ  -0.37910894114990201   0.062208813931290186   -0.30256743122979773
LJ  0.3204103872458991   -0.28149440928129799   0.1924950833490667
LJ  0.44473327884331182   -0.42323057220578775   -0.011269213501251775
LJ  -0.3704605839936137   0.48851948132623313   0.21258227573178176
LJ  0.028071905528060229   -0.11015979331349433   0.051213558553009408
LJ  -0.48113675360878211   0.47655592677248837   -0.49976782375694484
LJ  0.36870210285327426   0.39778232394248336   -0.071548279949363441
LJ  0.056583955058484993   0.40196119040526312   -0.41812774051317991
LJ  -0.13678463733803553   0.44858281533084882   -0.49339530433772927
LJ  -0.21831508209540926   0.46553800406630308   0.053537048192456964
LJ  -0.24295017105365832   0.11996904507061261   -0.48574381290286117
LJ  0.38746468351065905   -0.023157363493719798   0.12523041691637357
LJ  0.34073143989917326   -0.34571033365084486   -0.28276539851576005
LJ  0.34108065116246811   0.085788703171836123   -0.46614256108476537
LJ  0.47609974755682194   0.38406192910132592   0.10361046014345161
LJ  -0.28894841060893939   -0.33619230389526955   0.25409908999942221
LJ  -0.02668102296162821   0.041240926485084664   -0.48172388368973046
LJ  -0.21035481854005036   0.27410187255072666   -0.31979004347852907
LJ  0.11756725435126354   0.057783348953475783   0.36202174860126363
LJ  0.38815316444016351   0.31332453642872449   -0.35227919767815102
LJ  -0.17768710019089826   -0.1597818422450204   0.44855441775018173
LJ  -0.25402303223129169   0.24457128672887846   0.34806293282467282
LJ  0.041029590196036782   -0.13105416395651232   0.47805414958841846
LJ  0.21376306745475401   -0.22467254455659874   -0.4173605245393312
LJ  -0.41388572447552818   0.35796315393217826   -0.05180954065684145
LJ  -0.33637717714765308   0.26990639613816919   0.12738848935879055
LJ  -0.29135793592090398   0.24765100211532498   -0.14579779235782839
LJ  0.28640786306428184   -0.088411652289400372   0.27102920138407866
LJ  -0.092402929090188601   0.24588942028420679   0.46025253530402893
LJ  0.17088255623668216   0.04530391646415427   0.12703989530459872
LJ  -0.18396378169325328   -0.36159509200642059   0.49436781277483538
LJ  -0.31573711927713505   -0.46471892056980041   -0.36537932683368546
LJ  -0.10609834468580018   0.057054433532062493   0.013640945918279209
LJ  -0.4068366832752025   0.25777002005806787   -0.47762915283406554
