108
#Comment!
LJ  0.14503331880041803   0.34985542718212814   0.21616043855021175
LJ  0.26595834132965795   0.18620804602410856   0.25231368560942075
LJ  0.29708268106038177   -0.0037920314689620861   -0.11583146247698513
LJ  0.46878408274235228   -0.48357355144937614   -0.23767233090321324
LJ  -0.049462490725141681   0.33376409148540498   -0.23155751306783701
LJ  0.21506457022624828   -0.45423495612607973   -0.46779800434727808
LJ  -0.16610770566581654   -0.030054667221252423   -0.35462866810934346
LJ  -0.062835435057541661   0.23865541224204481   -0.0465497227610693
LJ  0.22747619159308455   -0.16728152579571981   0.00042922792667553634
LJ  -0.30882993290454719   -0.44332159836636847   -0.14427405866149381
LJ  0.26436117161931144   -0.014017716081568295   -0.30409848714596655
LJ  0.091675146647382813   0.27711131830756636   0.40887034377368747
LJ  -0.23657215678962767   0.047077047522037729   -0.14195556395112033
LJ  -0.25961628725517144   -0.11415246803025013   -0.017814324263643072
LJ  -0.144467118644451   -0.47329330913480655   0.26917190838130561
LJ  0.22432231779470727   -0.44077576425668957   -0.10001787171967311
LJ  -0.33742987819830844   -0.24531269465243138   -0.38421134364965986
LJ  -0.37943871816253627   0.068642270136080943   0.23466612380379531
LJ  0.26538046933321369   0.47028570962252808   0.11414969871356023
LJ  -0.096554182116226767   -0.12843984995620722   -0.14288431939523596
LJ  -0.47412633493400436   0.043592408638131512   -0.087059016497664996
LJ  -0.35181627182179515   -0.062359513245165039   -0.4876153243752992
LJ  -0.3991480791828973   -0.31933557762597387   0.42928550273375288
LJ  0.22324145051115726   0.25130888257680944   -0.43701095329525341
LJ  0.45478538664715018   0.18530940200624313   0.16580663240476359
LJ  -0.085527239053523302   -0.47811138534307757   -0.30993750855925589
LJ  0.020749988465725296   0.14492642809281994   0.19473740624420066
LJ  -0.09201169421377825   -0.27770060985985345   0.1590778040990834
LJ  0.45561524780585894   -0.10224028340692438   -0.41974393976652469
LJ  0.19455382268555776   -0.22516872578268468   -0.18704665385053634
LJ  -0.44852680366994269   0.32628386171009172   0.29842301711567221
LJ  0.050734845125029217   -0.078216001288841833   -0.27661666026269599
LJ  -0.37229497741702067   -0.35187554606806148   0.028741407492917065
LJ  -0.44694683514938804   -0.29548312881770483   -0.2043849085458054
LJ  -0.17222331031168941   0.10972876819208149   0.21951718132617434
LJ  0.41562921860140123   -0.22660437674176817   0.40194967711681295
LJ  0.42209835708258964   0.12152878322820911   -0.27220938606227107
LJ  0.40212211615341953   -0.42697207633510781   0.33283442913703315
LJ  -0.019724901498983968   0.45224083031312706   0.068263709187964552
LJ  0.14139684314429571   -0.31827969443083015   0.096640243038845983
LJ  0.46644443676051744   -0.21340828708592202   -0.03685775146726511
LJ  0.098432835716286221   0.48610076244320755   0.35348502732138193
LJ  0.4471097972110305   0.22038656127077802   -0.042908561077055582
LJ  -0.0071273192299086381   -0.35965233980720901   0.32476399328872319
LJ  0.28031356318414724   -0.083818577758180149   0.47325207831980809
LJ  0.20484751556269773   -0.25897963733447993   0.34457612398853166
LJ  0.38833797999231079   0.26879316952156285   0.4595014009623638
LJ  0.46738805699382996   -0.34197343628460097   -0.42353952980443421
LJ  -0.4920064915808679   -0.29848920728674105   0.19771532268068651
LJ  -0.036193415567308429   -0.48228457977762179   -0.12472320976000804
LJ  0.1122708591312407   0.13376768227572361   -0.33614208297864573
LJ  -0.24180140286834956   -0.13616252051779079   0.21492946394735474
LJ  0.33583400636708138   0.39432292786195072   0.32193605683318982
LJ  -0.34589508808867592   -0.12764840142628123   -0.21355794343323586
LJ  -0.0057840656619401786   -0.40425594047548319   -0.47181252462837647
LJ  0.24983715533900827   0.45139688405389683   -0.26973610241129781
LJ  0.096777814298222853   0.030731373393508649   -0.11237291545279679
LJ  0.21974383772391132   0.2517009217827178   0.046076585061994697
LJ  0.27365028925633583   0.21816377537762741   -0.17367761084384897
LJ  -0.30285143924971114   0.45104446060627768   0.41664902672048265
LJ  -0.15174612337164561   0.33817684537088943   0.19929924640961796
LJ  -0.4245880303811273   -0.10134337493496726   0.11534876387260316
LJ  0.47979360350654804   0.1356107248615194   0.36679440171529892
LJ  -0.42877280499089593   -0.12424344368205666   0.33128645899747
LJ  -0.066874039249939413   0.094147753104059304   -0.20372267234095054
LJ  -0.063299320682840582   -0.23298178609039041   -0.37584474141647961
LJ  0.035052426985656381   -0.25528979360684673   -0.076733946036389028
LJ  0.40016727385391943   -0.15301392038131173   -0.23856568251108656
LJ  -0.39922348639498667   0.35810128824277421   -0.26800049890747152
LJ  0.084999067774979703   -0.38987244388352971   -0.25234483485839926
LJ  -0.08008149545108717   -0.012706651085397076   0.33732158653016148
LJ  -0.17005170439597403   -0.31782813486956735   -0.025342056233263799
LJ  0.13068645142832727   0.38058201198009028   -0.097939395500478699
LJ  0.054920720646225538   -0.15814180883893475   0.23978021540600214
LJ  -0.37923601089733483   0.062316075016234138   -0.30254082946949584
LJ  0.32007514592197323   -0.28165241889772336   0.19279803596478384
LJ  0.44463852033589052   -0.42358507356551045   -0.011287619048821381
LJ  -0.37031197166243712   0.48866358150898548   0.21295976084443988
LJ  0.028456348590132956   -0.11019459774789679   0.051093318980939682
LJ  -0.48149053600080982   0.47659558883240766   -0.49954965085774894
LJ  0.36848540296398719   0.39788771712703647   -0.071454570598337042
LJ  0.05642884514009442   0.40257902452009242   -0.41852475440600401
LJ  -0.13672332163324546   0.44866218865080926   -0.49300765941539232
LJ  -0.21829758345778738   0.4651641979569211   0.053327530474127222
LJ  -0.24274466727736452   0.1201160811228932   -0.48586593738436279
LJ  0.38794898915866222   -0.023317210409587195   0.12538330352868568
LJ  0.34089290409038286   -0.34585203150231336   -0.28275907963133662
LJ  0.34104803009264467   0.085470568511586381   -0.46652796513562761
LJ  0.47600739275786247   0.38403356969473179   0.10350347706889913
LJ  -0.28906816786896983   -0.33617940771725052   0.2540873203323652
LJ  -0.026860937425807006   0.041239116453773754   -0.48144746046230197
LJ  -0.21064629272939936   0.27418700386620865   -0.31971821597017053
LJ  0.11780223385627539   0.057968055764686104   0.36157328229642388
LJ  0.38794336413054253   0.3133527908242883   -0.35243094003197839
LJ  -0.17750175620040864   -0.15991535492425635   0.44864164350274727
LJ  -0.25409248167995613   0.24438328571973619   0.34772590944084236
LJ  0.041147512366228711   -0.13076763538719088   0.47831921939332833
LJ  0.21393398755224818   -0.22493146434393624   -0.41718137897344093
LJ  -0.41367404033954785   0.35800592324932012   -0.051984312760431452
LJ  -0.33649637309575453   0.27005951886922414   0.12734784626187226
LJ  -0.29160978639840196   0.24774607754236985   -0.14569360040018384
LJ  0.28644764821782631   -0.088583167865770515   0.27132836616047568
LJ  -0.092650873789698107   0.24564064002564112   0.4604327466792334
LJ  0.17101197838167984   0.045247630268930937   0.12731712450147245
LJ  -0.18418881518521474   -0.36157920248938841   0.49417867804723864
LJ  -0.31586980047628033   -0.46466935841035484   -0.36538042966703982
LJ  -0.10641935578207519   0.05737099643353448   0.014038929412812482
LJ  -0.40710220405541825   0.25768277687127533   -0.47771621638516643
