108
#Comment!
LJ  0.077567553953549695   0.16526323400897475   0.34015351931048754
LJ  0.166584557760697   -0.22740363925882454   0.24485384619464867
LJ  -0.49455792321303466   0.0014842652195425777   -0.069112206446129434
LJ  -0.36876922542878421   0.47830522431440609   -0.30903618668058691
LJ  0.3853165139626174   0.32483279529505171   0.46821161109024179
LJ  -0.11389164626431464   -0.1606606101288309   0.18253976836100791
LJ  -0.056317747872517337   0.1370874562730385   0.15571981979552155
LJ  0.42847491939397536   0.48648262597865455   -0.29939265783094166
LJ  0.25599834743400357   -0.41610508925461137   0.26057328782990857
LJ  0.31389323112933615   0.45893004623484296   0.33180118357770988
LJ  0.32591277218820081   0.27122957346858828   0.41476103693779831
LJ  -0.11674237387632938   -0.26496024070923607   -0.43101186983969392
LJ  -0.07814317104807926   0.16628816562361665   -0.4156208718356515
LJ  0.0088960797699964601   -0.30252442280446856   -0.39518230988150604
LJ  -0.46839522572822606   0.45993639793807034   -0.23211428226152003
LJ  0.085635676916539505   -0.36401933837762801   -0.26339332782582764
LJ  -0.06445996986213165   0.11015620049986569   0.46143954282009142
LJ  0.21340835476625855   -0.45987242582642857   -0.25681167303873703
LJ  -0.25827680165808697   -0.23442058941395372   0.22233028331653712
LJ  -0.053668190945316996   -0.40009799969300691   0.23815410308095655
LJ  -0.37130253729603047   0.43463194043694908   -0.04073286187329981
LJ  -0.17026945125086232   -0.3055253886475453   -0.094402717739115655
LJ  -0.14382324047021958   -0.21229952276720432   0.12265359233190649
LJ  -0.11324157453350868   0.47769997239009199   -0.23320193825951616
LJ  -0.16225662945826264   -0.30347368905062866   0.056498014265570162
LJ  0.066673028091101802   -0.25474898824799125   -0.28958429431303134
LJ  -0.30680536565059652   0.37489572493876627   0.42602318820086932
LJ  0.40840427722033973   0.0051141307218403017   -0.12944384246162771
LJ  0.33571266838471986   0.23845193760000799   0.026281362167657928
LJ  0.12033878150412065   0.12487064449942596   -0.22100684512307534
LJ  0.25012084260675171   -0.33641712085270242   -0.30053783379607552
LJ  -0.41778343350368763   -0.44201253002991492   -0.21818395295237214
LJ  0.34014812727020199   -0.061202325038351768   0.43813576848707331
LJ  0.4639052900117599   0.44622532505227896   -0.082616741908877148
LJ  -0.32518629149180556   -0.13320795251899967   0.072326622888928938
LJ  -0.4288972935197149   0.2592543777089128   -0.24671131175680183
LJ  -0.091255104556888428   0.39347490045565314   -0.11078181563063849
LJ  -0.23189609864613653   0.014063176866916554   0.06290135026356776
LJ  -0.35737915340242837   0.0073861310611031423   -0.45775776845493654
LJ  0.37253634565950672   -0.1367432755124347   -0.49798667224292376
LJ  -0.44763511692582086   0.34898373094768981   -0.17866276944862189
LJ  0.042762435313838408   -0.10515722581238246   -0.31961835425464002
LJ  0.42099328589725471   -0.45018160159897586   -0.42127457438350485
LJ  0.36563056122366039   0.48140308487736178   -0.21323524607026853
LJ  0.048966214414964807   -0.22692238166351794   -0.49118344907514455
LJ  -0.48325409519827156   0.4228330915785995   0.49449477279830473
LJ  -0.36330078765253404   0.20727625542598369   -0.16384229987162291
LJ  0.21993461752576501   0.49009533052562609   0.33574455230792366
LJ  -0.38455414422003725   0.096586302140676081   -0.49961697518669218
LJ  0.39468511352142599   0.32717886778258487   -0.43589471542647684
LJ  0.15186471370948201   -0.43894304317015181   0.37671163697455234
LJ  -0.3108569013095   -0.25491079904501551   -0.49662841631860727
LJ  -0.30929589940869201   -0.23071488552473643   0.10683185989783124
LJ  0.18612925873738306   -0.35828786591939255   0.36650643959929297
LJ  -0.23838286424909597   -0.070647594686813545   0.21781066973052726
LJ  0.0089964381381647043   0.17845539866638227   -0.2764733281835749
LJ  0.34901918043213642   -0.15508314818457999   0.26132597558598403
LJ  0.20239969610190353   -0.47918053477434364   -0.18085418554392299
LJ  0.46681069180635848   -0.28065468740075161   -0.11342547148533008
LJ  0.10128164077159964   0.22933378111771707   -0.26471631222552522
LJ  -0.37152814199573458   0.045004209146362696   0.08151670718173723
LJ  -0.32274925549929379   -0.29522528942245857   0.41794168083025718
LJ  -0.24441123505192117   -0.38899896851144167   0.13934522770930266
LJ  0.19965510385282223   -0.28852780684609758   -0.25030021526107776
LJ  -0.41525425757244078   -0.33201900591383277   -0.28907283225988084
LJ  0.27594264460635298   -0.36880407418394129   -0.41337632609809272
LJ  -0.28859956537859693   0.4240071890445099   0.0012403776273355179
LJ  -0.20336793494129418   0.1537517941644041   0.47581632363093218
LJ  0.23162686573668415   -0.14369573193000554   -0.26719978441587777
LJ  -0.45897804403545434   -0.071695285346033255   0.027002258547072562
LJ  0.49156782182164854   0.45565434129467075   0.24175815029295
LJ  -0.120504626881829   -0.23036872512535117   0.03358088539682199
LJ  -0.078604846685220553   0.10120416610371503   0.32361972729113836
LJ  0.49309754286974228   -0.13894674437755367   0.10423203189846091
LJ  0.39607580647287838   -0.06589501922538181   -0.066436063119024669
LJ  -0.11917152237018447   -0.027786537488882677   -0.14253705703970806
LJ  -0.014844635787802299   0.15987395381718911   0.28197451810766888
LJ  -0.19135877064333165   0.04938732496434519   0.46330667943548831
LJ  -0.29107498821183658   0.42388142135949636   0.33629473285718997
LJ  -0.21000826746476761   0.1638484063192634   0.15959948341442973
LJ  -0.42457119143840871   0.34675892106019923   0.054804486590844879
LJ  0.45896195714528298   -0.059599393235086277   -0.13551746200163303
LJ  0.46711576968113133   0.46001027928893784   -0.17684029550793892
LJ  0.22990577629709405   -0.36220177179002172   -0.16372200213373811
LJ  -0.38807062420437022   -0.35281859696403678   0.31030819623496203
LJ  -0.34704847833818914   0.11207721154407335   0.38954563285259403
LJ  -0.032143223795875295   -0.47465140815459173   0.3671900313569037
LJ  0.47291162371799977   -0.49233044542874183   0.17834867493421533
LJ  -0.13471125969019898   -0.4659244465827212   0.35768919223993872
LJ  -0.45638789170950422   0.48302828037683471   0.12541417123363521
LJ  -0.30673559982506193   0.37013018541706755   -0.056801469696150964
LJ  -0.36405462782204523   -0.26887936882842056   -0.11232818730555937
LJ  -0.22233660664266908   0.42275384865840537   -0.31436769453170305
LJ  0.36389462049986915   0.37486926656950892   0.0046962506235751992
LJ  -0.31971202051999109   -0.44081053082190269   -0.16731401385252248
LJ  -0.41571343542763756   -0.31046174002801386   -0.36652115378865058
LJ  -0.12643710110345119   -0.063626090349232736   0.19893752057806427
LJ  0.39819618670430984   -0.44572526167979742   0.26418664475529902
LJ  -0.4012910084767885   -0.13862880847737577   0.036660975956979161
LJ  -0.40569403371729518   -0.34134139976935557   0.19284437655624498
LJ  0.17367760956421582   0.24548087578162237   0.25838855805952943
LJ  -0.1748141557924292   0.23218129146942793   -0.025351494592203202
LJ  0.37448941331773272   0.1217692973192777   -0.077530832348511769
LJ  -0.45521700676797605   0.47526875503141264   -0.33389577380040908
LJ  -0.2042806998570956   -0.17562029384533745   0.16893041061682296
LJ  0.45488102566260596   -0.12084220771539304   -0.075744759633898942
LJ  0.053877612071845424   -0.49383415795678853   -0.2557756932491938
LJ  0.084096959562918877   -0.3340011880780388   0.41454326038641121
