108
#Comment!
LJ  0.49737887843101602   -0.49828408383397949   0.49150257165327049
LJ  -0.34658382565343149   -0.31630992031117433   -0.49283500828502075
LJ  -0.4979165507483938   -0.33290484154318101   -0.31841786012456003
LJ  -0.32984614671793638   -0.4985829819943623   -0.32950040830617039
LJ  -0.1655770051603587   -0.49032800515463715   0.48380504938611618
LJ  -0.0061612109073170785   -0.33348421767480579   0.49686138617956344
LJ  -0.17034262199239608   -0.32937763227932237   -0.35154475461631185
LJ  -0.012357274916360947   -0.49283282708983639   -0.34611455194974045
LJ  0.17775519778255489   0.49307514963051374   -0.48854388696012124
LJ  0.3225164476691269   -0.33528461619558519   -0.49286415189399385
LJ  0.15554063716849023   -0.33921946372870504   -0.34333062658419378
LJ  0.31889185007218945   0.49927716592963889   -0.32858989310656317
LJ  0.48181787803513643   -0.17312211130650923   -0.47848606666006432
LJ  -0.34927215344210716   -0.017278783336732727   0.49496300285872702
LJ  -0.48591157989181211   0.016945081816718326   -0.31712853585831191
LJ  -0.34817179167002438   -0.14989781692339094   -0.32564422511405033
LJ  -0.16483933291489938   -0.1633282488405812   -0.48560743196772377
LJ  0.0042882408666741799   0.010891675305993692   0.4838516368333185
LJ  -0.15658398741891244   0.0052604690191178005   -0.33636021845099556
LJ  0.012797183001435668   -0.1530260216821076   -0.33224345779124353
LJ  0.1492995862815284   -0.16959237872703339   0.48125830339487868
LJ  0.32990611861798935   0.0031035359189688391   -0.47400329980957834
LJ  0.1538236324973051   0.0037011948698085946   -0.3330904158481407
LJ  0.31265092726455546   -0.16029188373989614   -0.31522132564420824
LJ  -0.49201394376486135   0.15225493350064584   0.49582803827240701
LJ  -0.32578064321388595   0.3419675967621757   0.49143765494594588
LJ  -0.49739325804103562   0.35657495428679103   -0.34811233277516374
LJ  -0.32785284383653096   0.16639796607726526   -0.3316323822396936
LJ  -0.1743134965264051   0.17695182803528772   -0.49492904806315968
LJ  0.0096781901189171987   0.32607572000722768   0.49988038506314464
LJ  -0.17705205792668635   0.33673464351457677   -0.3456773674699648
LJ  0.012552433564979176   0.17113051319168074   -0.34922472393680565
LJ  0.1698554957329311   0.18464996221347696   0.48751016508285727
LJ  0.34537067803390975   0.33507186666428185   -0.48680719458472527
LJ  0.18309009865165995   0.32784823245234901   -0.32936860708306265
LJ  0.32546349733589847   0.16030170580841197   -0.32770969444579584
LJ  -0.49617897774505509   0.48079133427144638   -0.16676892906441321
LJ  -0.32952113541704348   -0.33656810398254899   -0.17839457584573964
LJ  -0.49544984768092648   -0.34298884959571269   -0.014640940615419337
LJ  -0.30736358769647576   -0.49689417087722076   -0.0051712355376381204
LJ  -0.17040014396320932   0.49359419790772791   -0.18090412167158831
LJ  -0.015664429116908955   -0.34053189861812899   -0.17783945669434018
LJ  -0.17568071850693909   -0.33321885073517205   -0.0030895416018169863
LJ  0.0079274378894093455   0.48984388785908095   0.006999335256732137
LJ  0.15581236554900688   0.4984579874928739   -0.17536079428483164
LJ  0.32125016545019286   -0.34841903822404957   -0.17499308345994702
LJ  0.172605350650999   -0.30719369370368965   0.0037281152006531687
LJ  0.33582692219596721   -0.48933245882859966   0.015710650486227138
LJ  -0.49193839754546098   -0.1570104808165188   -0.15565672505652481
LJ  -0.31377262688198032   -0.0048455518967969362   -0.17357122490552387
LJ  -0.48702536400989355   0.0050083556542610749   -0.018883454845769532
LJ  -0.34062817396739326   -0.17756880915777376   -0.0072911093696717997
LJ  -0.16126903341871027   -0.17306902293897466   -0.16326591612221458
LJ  -0.0023851682710300422   0.032367280505994953   -0.17920548463235503
LJ  -0.16585056250059141   -0.0051594502784316583   -0.005846042442009894
LJ  -0.00052715588576379008   -0.17746355131536692   -0.0053997053752748957
LJ  0.16104424520040792   -0.15922081711108449   -0.173040138137039
LJ  0.32097190596862651   0.010367752673135796   -0.16698753158908303
LJ  0.15688641692137126   -0.0044942082608378734   0.012665565893133633
LJ  0.35706866931795284   -0.16928378418085158   -0.0072795318145681452
LJ  0.49488309773353428   0.18410261600119449   -0.17261363322272827
LJ  -0.3330258600494504   0.3149330993448991   -0.17394576309215995
LJ  -0.48690148802218403   0.33763686408415322   0.01798136278427347
LJ  -0.34543817904800073   0.16746719918168518   -0.011625590125263768
LJ  -0.16144744364536523   0.15909635294336111   -0.1759468654094597
LJ  0.003287047290005111   0.33802387404569378   -0.18006145357799394
LJ  -0.14208858403175498   0.32792555874715479   -0.028103654173160592
LJ  0.0045667588939374759   0.1512090899346861   0.0093552372553290051
LJ  0.16417264321173022   0.19588527052454482   -0.15319429006021837
LJ  0.32979266947396213   0.34823937042283976   -0.13897234406527376
LJ  0.15806584357354814   0.32461579528319418   0.015608913278084859
LJ  0.33803819402320651   0.15456411162791092   0.009865438482855645
LJ  -0.47239738953961291   -0.49747990673137754   0.16811782941545825
LJ  -0.34202931372400464   -0.33578189690323668   0.16653874776118052
LJ  -0.49869510917589432   -0.32218497638895638   0.35278639561515335
LJ  -0.32412012345233343   -0.48407160489535506   0.33703718347762618
LJ  -0.15768964420900078   0.48230618652350821   0.17733009938089797
LJ  -0.0089585245842374907   -0.34454967143444054   0.15939783144007796
LJ  -0.1625759486689749   -0.33655728309321364   0.32177094538620582
LJ  0.0075517034585537261   0.49208883027005434   0.3272175645255363
LJ  0.17814172916321813   -0.4903581472214838   0.1571979401163634
LJ  0.33562979530267389   -0.30615721966946779   0.17886031358420179
LJ  0.16644561133236915   -0.35552771539698247   0.35177304217423311
LJ  0.3339984505950474   -0.4867422752134099   0.31373796590246417
LJ  -0.49789423915256276   -0.18013097870253014   0.17245934969346499
LJ  -0.33341164813411883   -0.0073335682249261657   0.15077497910656779
LJ  0.49589707767506996   -0.016765350516085898   0.33536514861580446
LJ  -0.33016132515467217   -0.16786294820090858   0.34586960293750513
LJ  -0.18482583728858246   -0.17177545299998984   0.16026805274548858
LJ  -0.0077086820262483348   0.011007544023123882   0.1770110242686064
LJ  -0.16798817429909843   0.0053484150248687534   0.34001779632431839
LJ  -0.019847933836139815   -0.15808401849403203   0.33346254406242637
LJ  0.15413738538378047   -0.17472545075152243   0.20419897148158642
LJ  0.33407519252835927   -0.010349497423702251   0.16272915890329348
LJ  0.18311924857137174   -0.0036055948809745014   0.35416359110563694
LJ  0.32678415756764395   -0.16091002022428938   0.34333882863387094
LJ  -0.4877834005016678   0.13926736834955103   0.16106605263186585
LJ  -0.32871691403601699   0.32619667281868781   0.170820809998289
LJ  0.49949955298338494   0.31974272530397785   0.32254706740916128
LJ  -0.33376841991902106   0.16395084708678909   0.33406953192106492
LJ  -0.17310961924105428   0.15987108126835634   0.15777739279676944
LJ  -0.0089151716621869923   0.32213365187613863   0.17286926540017605
LJ  -0.17727933228419235   0.33010818538018277   0.33060747286839642
LJ  -0.012003719941446342   0.17241495576815719   0.33905311018314344
LJ  0.18029578986542535   0.16276502846829641   0.17989721607205839
LJ  0.3393892621031559   0.34215402130925004   0.16313181462497431
LJ  0.15635693955515745   0.32527504247506955   0.31452659412298306
LJ  0.34420847245582709   0.15038740274909401   0.33443655935262007
