108
#Comment!
LJ  0.32438082780747229   -0.01517048960840262   -0.48346742046945196
LJ  0.49504500894095033   0.17406605056066843   -0.47730317968901231
LJ  0.3369944862534815   0.16356231006595404   -0.31998645366712425
LJ  -0.4962706859143074   0.0081166578634082262   -0.31331439906549657
LJ  -0.33516379533153412   0.022037883300143089   -0.4732394566762016
LJ  -0.14177399212574746   0.1577791563299803   -0.47231146595559642
LJ  -0.31491700685716245   0.17941934193755488   -0.32484572670451356
LJ  -0.16345786452236552   0.0089205638012629842   -0.28555302305706859
LJ  0.010974583684117039   0.02059687529738357   -0.45791572213777548
LJ  0.18818809871511247   0.1652769299182302   -0.47503525199972696
LJ  0.018161269590638671   0.18562561940289884   -0.30792300299480962
LJ  0.17812409486894668   0.0040325620565323187   -0.30688899219962928
LJ  0.34223755836163627   0.34226098265928123   -0.47340177806940686
LJ  -0.47469874730040856   -0.46745567127180732   -0.49082031245812791
LJ  0.34447747550592228   -0.47572321202725437   -0.31736433608004527
LJ  -0.47790740941125737   0.32732997217564225   -0.32117907751695651
LJ  -0.32330389164860246   0.34065610564500748   -0.48593711593278788
LJ  -0.15112671987359233   -0.48973068611459131   -0.49276555875143102
LJ  -0.32211738383104921   0.49955271525416584   -0.32156357735847196
LJ  -0.15106847768501566   0.35178921746673558   -0.32369486102781564
LJ  0.022414320334849636   0.35685399187535727   -0.47170513075200554
LJ  0.18667980722209396   -0.48350381326019687   -0.4805728959209577
LJ  -0.00071005036627204204   -0.48264389075349895   -0.30965589703982271
LJ  0.1745057480639072   0.35656378400793221   -0.30585893271331566
LJ  0.35257915590251138   -0.31195591194645883   -0.48021783409045177
LJ  -0.48612159946026023   -0.15045743476039741   -0.4622882867083945
LJ  0.34184583058893897   -0.14579332687243254   -0.30809618928037302
LJ  -0.48759853743120474   -0.33731929211215039   -0.30237518772112482
LJ  -0.32224180932526558   -0.30656570514875986   -0.49845701555972527
LJ  -0.1665382804117303   -0.14042546914172463   -0.46645141463125456
LJ  -0.32150087261135235   -0.16030432707505129   -0.31166778882943019
LJ  -0.17767320723011745   -0.3337005275104849   -0.32105054307158587
LJ  0.0001030693622792793   -0.33817773214680119   -0.47650385162862435
LJ  0.15040408321474105   -0.15640019196994792   -0.46386076492847983
LJ  0.005883760389365421   -0.17033104126754184   -0.30991290694137308
LJ  0.18965651021668206   -0.32349202342474515   -0.2986963960266345
LJ  0.33419805105318312   0.010959002729201093   -0.12147138719037882
LJ  -0.48498214741645607   0.16787357515873833   -0.15283278477267956
LJ  0.34287741962816742   0.17702724419819943   0.017619523531598874
LJ  -0.46987909326069449   0.016995643480334693   0.023148298355898236
LJ  -0.31922635054408333   0.0072974151946929109   -0.15350292781065458
LJ  -0.14994916908697439   0.19233511764885641   -0.1523771438905592
LJ  -0.30518750812135403   0.18250393556621813   0.014331537542470995
LJ  -0.15359140400059551   0.011679039610747705   0.0081830936889967319
LJ  0.0059737274775352421   0.0064492128010197273   -0.14827232148170982
LJ  0.17047664084209685   0.16638352663100064   -0.14922690987720452
LJ  0.013268410375275633   0.17220574701062921   0.014203892863813277
LJ  0.18124315310206832   0.01042649351261825   0.03445150069044367
LJ  0.36331620712998869   0.3317662720560241   -0.16713449847812212
LJ  -0.47781515417402282   -0.49609752384887146   -0.13966455252074522
LJ  0.34651740267500608   0.49737501121608274   0.014939399308886757
LJ  -0.48331477749439311   0.32565051267910727   0.0090066357906379933
LJ  -0.33091932364020071   0.34185240458422134   -0.14422919449549074
LJ  -0.15100429867670218   0.49769151865558331   -0.14015388157546724
LJ  -0.32435261900095613   -0.49284176990485351   0.023876675792994063
LJ  -0.15927848977170594   0.35124476343119471   0.025218173711097674
LJ  0.0073271168471553683   0.33356562554649205   -0.13882523478278777
LJ  0.18439514822251754   -0.48600199084728851   -0.13864831824101884
LJ  0.0093724810160479791   -0.46808831776951454   0.018610389041809082
LJ  0.1794337662227993   0.34998894602898883   0.030922938254348633
LJ  0.35690768220824198   -0.3068973206942574   -0.15581663425285305
LJ  -0.47298783536596639   -0.15333042193740379   -0.15957876833566378
LJ  0.3876924156833344   -0.1542125094299078   0.024539445450000353
LJ  -0.47913339050285941   -0.3242375034738762   0.021353939792986457
LJ  -0.32137465787066077   -0.3387135582631523   -0.15322331396945957
LJ  -0.14586942680675749   -0.15395175057675942   -0.14422057918491599
LJ  -0.32990190978760248   -0.15394710048890128   0.030228288237072309
LJ  -0.15576665020273986   -0.31907558397079094   0.024838521799478774
LJ  0.0026249298161947292   -0.32134817854791742   -0.14682003481183414
LJ  0.17922344723395595   -0.16070174187487596   -0.14360808475585785
LJ  0.02410270190393456   -0.1442008422479347   0.036315532365831557
LJ  0.16575056910059341   -0.29674164350726528   0.031602051954934679
LJ  0.33812037741291817   0.0061969209598574304   0.19470243708235563
LJ  -0.49439041729146321   0.18080439156896347   0.1639378740782495
LJ  0.32099894912770199   0.17149823380446938   0.34188956054389635
LJ  -0.49159298319811862   0.037982772089444429   0.33994465029708915
LJ  -0.30403524758812012   0.023517913161896251   0.1819214008560906
LJ  -0.15352186368145193   0.19193252987154277   0.1895340668724291
LJ  -0.30420607597637611   0.18588883840776085   0.34712481560408803
LJ  -0.14997198269213144   0.029300047043166522   0.35343190421351339
LJ  0.017642622977742526   0.017513101934063056   0.17957829031022554
LJ  0.16365534469730436   0.17594972633552181   0.1994324256692899
LJ  0.022519895009310266   0.20581599135067841   0.36928410895179364
LJ  0.16253098106618202   0.0082403049610450963   0.35249383806812296
LJ  0.35006584408958502   0.34353685733443451   0.17944256062290931
LJ  -0.49008986002646848   -0.48677520048348882   0.17849967385896287
LJ  0.35761390393169934   0.49144055816459759   0.35780366661455559
LJ  -0.46422933469252686   0.3259556810278002   0.36552387208810877
LJ  -0.30160225732038559   0.35863722819776933   0.1883503675806476
LJ  -0.14539202041020916   -0.47803083836729421   0.19900196432680781
LJ  -0.31336683861881237   -0.48508318935725148   0.35460635682384511
LJ  -0.13731848377464112   0.34588009327091868   0.35996424969655344
LJ  0.010165868729503692   0.34727689464282069   0.18498027871029979
LJ  0.17684692448791428   -0.47159121818387606   0.16675996050603828
LJ  0.027856057758752186   -0.48976175322291732   0.34527598455378894
LJ  0.19133058194629551   0.33860660693369365   0.3431913590779454
LJ  0.36450780673806232   -0.31893291688603659   0.19265061557144211
LJ  -0.47761453905260487   -0.1341546661168129   0.18690816571988395
LJ  0.36281979584252444   -0.16390162917966736   0.36709166299163903
LJ  -0.49447498459167993   -0.32977417392698327   0.35483069681739654
LJ  -0.32242622730354964   -0.32211747351798048   0.20380387026965247
LJ  -0.15183208725078143   -0.15400080844750647   0.18236965342378894
LJ  -0.33395002756975189   -0.13180784558196354   0.3561009152511917
LJ  -0.15749460483156064   -0.31946638300415137   0.375724475502415
LJ  0.0076712386301026553   -0.30804496555150912   0.21404197550493761
LJ  0.18583809788490502   -0.15604315502425978   0.20841301009144578
LJ  -0.011731346792537753   -0.15002835342664   0.36154546608315874
LJ  0.17974533308632473   -0.32295781448992528   0.35673067283933463
