108
#Comment!
LJ  0.48610630755405193   0.49262517200849459   -0.48899632406841015
LJ  -0.35452299325057052   -0.3189370336417533   0.49306427625543281
LJ  -0.49364351868714856   -0.31315402050511626   -0.32725263763467971
LJ  -0.3285865499099222   -0.49475826534719158   -0.3364045074050887
LJ  -0.1525185503262842   0.49378507168617597   0.49760833814841327
LJ  0.0037791104675916425   -0.33335186448995074   0.49132218558879187
LJ  -0.16187755653260563   -0.34643542569921348   -0.3410600194997212
LJ  -0.0010924956371160225   -0.49589342372195239   -0.34470316104292426
LJ  0.15655609732756087   0.48940411549233442   -0.48787439974816976
LJ  0.33684332838454517   -0.34107436631883203   -0.48956556070594143
LJ  0.14716834872173143   -0.30275777205525717   -0.34640167206745137
LJ  0.33339453225895521   -0.49630049333615245   -0.33570509254149494
LJ  -0.49915879890095094   -0.16602445979167912   0.48096266624470424
LJ  -0.33977127391618883   -0.0029952590204179335   -0.48708762361872099
LJ  0.48782105406787274   0.010320423000860394   -0.32317109720218978
LJ  -0.33759449710625544   -0.16044755461458124   -0.34142486017817136
LJ  -0.15541122401349103   -0.17026064401115282   -0.49862852262918794
LJ  -0.013184544720505498   -0.00014557496449405554   0.49887738433736867
LJ  -0.1651051028747709   -0.0073350815413608852   -0.33880057850887568
LJ  -0.0040249980710085828   -0.14254475928335614   -0.33534752348104502
LJ  0.15634195980501936   -0.17243544912759609   0.48412915173374338
LJ  0.33358867653940205   -0.00098690696768031919   0.4856571298303628
LJ  0.1352339708315351   0.019784572253677409   -0.34275182654549408
LJ  0.31913755163748475   -0.15402798686298746   -0.35044104000587722
LJ  -0.49741098082013036   0.16891116217668931   0.48409142886873213
LJ  -0.34885274978996872   0.3442185232462539   -0.4925690763085121
LJ  0.48656829484332581   0.34633748757737864   -0.32696187859111064
LJ  -0.33910217294669032   0.16793444427498946   -0.33200935429015344
LJ  -0.17543242120501853   0.17078925939065245   -0.49099219986486448
LJ  -0.009510216984756641   0.32686033480477111   -0.49307716636865567
LJ  -0.17118998736980612   0.34255716295116279   -0.33400144064867993
LJ  -0.013666795765724304   0.17476693224168671   -0.3112237404496751
LJ  0.14953724522979295   0.17184314477851309   0.49714648562100139
LJ  0.32748988831186748   0.32877958413415276   0.49966970666178523
LJ  0.16422497838038155   0.33462127896703375   -0.32684538017074855
LJ  0.3179919776855078   0.16208914306530328   -0.34513848256824631
LJ  -0.48274911206558024   -0.48250507802964765   -0.16479337022561327
LJ  -0.30402830863471125   -0.34172160604462121   -0.16179845830667389
LJ  0.4949496283783692   -0.34124098856327167   -0.0087091196114116951
LJ  -0.28990913060906776   0.49968054747177137   -0.0010625169032750907
LJ  -0.15465381250474622   0.49817587418566933   -0.17511667693040189
LJ  -0.015004526299025831   -0.3214707179829569   -0.17364514715131743
LJ  -0.15552418863923337   -0.32514749469949372   0.0035555765865463622
LJ  0.0014881468680035099   0.49375009665181624   0.026467748215062016
LJ  0.16688069949090362   -0.48798003493995701   -0.16923599310707033
LJ  0.32626779164087716   -0.31642895699339962   -0.17473737393245836
LJ  0.14610646935473492   -0.32252120384145289   0.00039815908981395828
LJ  0.30914885800757785   -0.49921010708568236   0.0099713910489356329
LJ  -0.48657916468299067   -0.16763943872261114   -0.18014276960110401
LJ  -0.34890357652990794   0.017755907855103802   -0.17298944094083385
LJ  -0.48620373204580708   -0.0024192700431146931   -0.01111084596343407
LJ  -0.33934523332123367   -0.17346773612802791   0.0057530684026184256
LJ  -0.16551734368351606   -0.14833622239478433   -0.14646839865655337
LJ  -0.0014057684766602158   0.0075925938430904333   -0.14867834167624988
LJ  -0.15576679448697378   0.013235074431782779   -0.0099806305522146307
LJ  0.00039352970174057726   -0.16017474274007687   -0.011127737679814283
LJ  0.17249662691385284   -0.15715933665351633   -0.16300524433301902
LJ  0.34248189623875935   -0.019276892322572816   -0.14594411925604114
LJ  0.15647337810633624   -0.0038001186805119284   0.01516854905813626
LJ  0.3314201709278618   -0.18844524131300547   0.0029781557511682332
LJ  0.47943084473898212   0.17499720590623741   -0.15974351228322067
LJ  -0.31973869332265276   0.35377285171295436   -0.16588861683290215
LJ  0.4850752358212716   0.33855556485431554   -0.0071214806128025426
LJ  -0.33973593710499256   0.17138115024393488   -0.018146484487565135
LJ  -0.16850703688557389   0.1698442085516626   -0.16252313184069586
LJ  0.0056773069152271484   0.32789620463246666   -0.14651583497588472
LJ  -0.15092696723885296   0.32782901481244658   0.02470860608224959
LJ  0.0061592975031346444   0.17520216868941882   0.0041707815745034337
LJ  0.18332667354440832   0.15301407726055208   -0.17139672727522939
LJ  0.32625368130106286   0.3434978977054769   -0.16246718739493884
LJ  0.17864397194179768   0.31464771577115136   0.0058332464898557448
LJ  0.35666945187538668   0.16674600087979266   0.010020527781889587
LJ  -0.48556511448768458   -0.49908026442864861   0.16033090562810665
LJ  -0.32494001963469255   -0.34904220108952677   0.16521237281853224
LJ  -0.49093213544933562   -0.33706098590037464   0.31743674475705463
LJ  -0.32986977330299067   0.47852699684215033   0.34134433372211925
LJ  -0.15919737059153746   0.49741609697953687   0.19632164312550809
LJ  0.010177603947073488   -0.3439831732183829   0.1750322123748192
LJ  -0.18317218036709393   -0.3432048474386824   0.3453334639439678
LJ  0.021614298959319083   0.47773852826028879   0.33741345311439253
LJ  0.16974804315330752   0.49949268731804236   0.16399152720905805
LJ  0.34026516743812546   -0.33084701463854332   0.16345124717770906
LJ  0.17850510554968371   -0.34778030982921976   0.33069349621827338
LJ  0.34574550813049454   0.49985125204896114   0.33733905386349072
LJ  -0.48751973605686172   -0.19063184763143456   0.1606838783003405
LJ  -0.34343556679496551   0.0061379025000576314   0.1608790588038817
LJ  -0.48478980923451803   -0.0024549375784707408   0.31534908591408245
LJ  -0.3242030994458257   -0.17986713182720401   0.32687512110450906
LJ  -0.1719611457319106   -0.15993943600522542   0.16179260629156902
LJ  -0.019169329701640352   0.0046617113864405374   0.15084754793729446
LJ  -0.17476712730488428   0.0041071934898143344   0.33599954461567577
LJ  -0.016029911321975576   -0.1650941204601169   0.32701680379982462
LJ  0.17229228351579096   -0.17777480322239259   0.16559116276065336
LJ  0.34737172139588968   -0.021673825353563974   0.1751498253440549
LJ  0.14410884194480925   0.00086992988090310922   0.34288027644430397
LJ  0.33923506218767102   -0.18894361995545511   0.33944176495317013
LJ  -0.49743705011353073   0.18617788349405673   0.16314170304737674
LJ  -0.32941952254405638   0.33612694850932573   0.13827374193961126
LJ  -0.49965284058341908   0.34116773222151997   0.32557751381016753
LJ  -0.33627076964988634   0.15215858133934856   0.32276061183795135
LJ  -0.17392206694768822   0.17336503288133337   0.17674648836894746
LJ  0.013628280088278402   0.31305682683347025   0.16054967643545687
LJ  -0.16905032945401244   0.30971442506900299   0.33997270111237365
LJ  0.0061952917883470104   0.18026524919749917   0.33444501764264817
LJ  0.17358835782004578   0.14560992650409613   0.17314796841844562
LJ  0.33172920639431985   0.3372354376189739   0.18364784805041517
LJ  0.17136084366765431   0.32369050170772534   0.33296983674789721
LJ  0.35076905220859361   0.15561724526626453   0.31158953452686616
