108
#Comment!
LJ  0.48613716578142585   0.49253342233269071   -0.48909297630291171
LJ  -0.35439662462440302   -0.31899803457840153   0.49324348794232187
LJ  -0.49345971530090288   -0.31331721473813418   -0.32737890832412186
LJ  -0.32878025747689837   -0.49495375084751586   -0.33612783426214188
LJ  -0.1528924155865525   0.49381462475923743   0.49767375907751099
LJ  0.0037612380822991125   -0.33355315447462969   0.49130845839168824
LJ  -0.16185127929060505   -0.34626887759634845   -0.34124198956842833
LJ  -0.001453768842911058   -0.4958441093750216   -0.34459707824338209
LJ  0.15664835063750018   0.48962625873337906   -0.48751924338071406
LJ  0.33671417759770134   -0.34129286300676392   -0.48943636838170829
LJ  0.14729051513835192   -0.30265882722946014   -0.3463184578031373
LJ  0.33380874419419504   -0.49691499951714624   -0.33575033534605403
LJ  -0.49908070570866975   -0.16602137367359476   0.48105810901655122
LJ  -0.34010104372539773   -0.0027809573649983854   -0.4870906651340064
LJ  0.48779114326572653   0.010218224135002129   -0.32315984594773228
LJ  -0.33750078915508436   -0.16067783720661022   -0.34110081617045185
LJ  -0.15515746590009974   -0.17049773068596019   -0.49867918897958857
LJ  -0.013133443963306774   -0.00022795382365293725   0.4988880592660464
LJ  -0.16474115141797382   -0.0072312304071923562   -0.33896635824977589
LJ  -0.0042799655181556262   -0.14269940692580382   -0.33536162470159531
LJ  0.1561811495576324   -0.17237965345016268   0.48376853719107843
LJ  0.33363598522680948   -0.00074069518397314941   0.48573243604525257
LJ  0.13523933035613431   0.019769339043065572   -0.34291218291178177
LJ  0.31921381993335202   -0.15401069628018582   -0.35065565668075616
LJ  -0.49736215312993204   0.16909640720066066   0.48404697931539159
LJ  -0.34891305583111537   0.34437281306954626   -0.49234922136187431
LJ  0.48657471174386069   0.34646109576231326   -0.32702458846755827
LJ  -0.33918786449051785   0.16802787658617233   -0.33216250796097785
LJ  -0.17510130962207257   0.17115635334354717   -0.49097186843939089
LJ  -0.0092687479790972867   0.32681614785735796   -0.49281374598893701
LJ  -0.17098471236560298   0.34243758120539031   -0.33395610974201362
LJ  -0.013263984384253398   0.17522295563181894   -0.31140602402649697
LJ  0.14945776720626122   0.17156176809385679   0.49741776658067532
LJ  0.32724741246037431   0.32850783922920912   0.49975520043183419
LJ  0.1643010646577141   0.33454888584533921   -0.32692923485155201
LJ  0.31809140579488221   0.1618614991072756   -0.34500584622258673
LJ  -0.4825509989561394   -0.48243772733915069   -0.16492846932372843
LJ  -0.30413111129559245   -0.34172959980911521   -0.16157706441781633
LJ  0.494759041233164   -0.34112060872284583   -0.0087199575841714737
LJ  -0.29003370139303708   0.49949075798905002   -0.0010710223961114607
LJ  -0.15436902159300875   0.49830696911189304   -0.17502096635172512
LJ  -0.01496417611615369   -0.32142938868617943   -0.17328215575774081
LJ  -0.15533442960938407   -0.32486134284651219   0.0036934801900921771
LJ  0.0014167666191578156   0.49391377659800506   0.026605332092233706
LJ  0.16696832182551649   -0.48784808352256087   -0.16923302447918734
LJ  0.32617336387304685   -0.31660889687106009   -0.17492264797996068
LJ  0.1463129530996003   -0.32246888109183153   -1.5054918611536841e-05
LJ  0.30913658635503688   -0.49911026548272425   0.009507489899857325
LJ  -0.48641869629745427   -0.16786564086947253   -0.18004403309714298
LJ  -0.34891395172499018   0.017544061886667059   -0.17306773789945737
LJ  -0.48614965782079211   -0.0025152978425773214   -0.01092248285488299
LJ  -0.33896193711408218   -0.17357457021240957   0.0056812067420126261
LJ  -0.16594831265944585   -0.14816268386394985   -0.14636682064604389
LJ  -0.0014823477622047873   0.007864453363751198   -0.1486449613955205
LJ  -0.15546221368296756   0.013183394253850376   -0.010343612768637565
LJ  0.00066432299161808079   -0.16032025259500945   -0.010816818352857503
LJ  0.1722862025605606   -0.157109543037699   -0.16283160440322975
LJ  0.34221234446515758   -0.019420378669866064   -0.14607337904012102
LJ  0.15640940097732187   -0.0036056246720516977   0.015104563593502339
LJ  0.33137196263380553   -0.18857008608079756   0.0031036212950208836
LJ  0.47968140318043623   0.17510848812803886   -0.15973159319911662
LJ  -0.31971603442392799   0.35366463649794472   -0.16581015241295935
LJ  0.48485046143292815   0.33860933358851297   -0.0069831190722454408
LJ  -0.33982603608829426   0.17135411152895211   -0.018011531856070403
LJ  -0.1684635228912679   0.1699242093781721   -0.162255685797348
LJ  0.0053392791734818154   0.32781021462884247   -0.1465021536721117
LJ  -0.15079491809144208   0.32802001399258535   0.02467203166745981
LJ  0.0061792432966350725   0.17504485651926613   0.0037568163134312788
LJ  0.18341919717503094   0.15306221231928552   -0.17143184718422633
LJ  0.32582728068667094   0.34393390862523643   -0.16262597931764411
LJ  0.17866641056356977   0.31454611811415778   0.0051155199902617144
LJ  0.3566150459034827   0.16657287621978903   0.010291242143847693
LJ  -0.48548560085549824   -0.49923547130073309   0.16034643093722153
LJ  -0.32506778363013777   -0.34907916430291519   0.16530785817692434
LJ  -0.49079804262481663   -0.33684957516496261   0.31730069157000629
LJ  -0.33005351058361704   0.47831116030162046   0.34133255585705036
LJ  -0.15933239572758445   0.49717232855501015   0.19591707883467677
LJ  0.0098338650575962982   -0.34421877839803955   0.17523830608690583
LJ  -0.18337732156418801   -0.34316801577605743   0.34530137379913289
LJ  0.022019036515143101   0.47773984452390267   0.33719033002773224
LJ  0.1696224362193543   0.49938712363941162   0.16418740580121721
LJ  0.3402497815582986   -0.33083691270376675   0.16296651770681833
LJ  0.17824425585597597   -0.34764022193293292   0.33062523144877942
LJ  0.3459430614468304   0.49999075391110936   0.33737484976159438
LJ  -0.48762923211332199   -0.19056212569899234   0.16093130423999116
LJ  -0.3434464504441726   0.0061681514564132433   0.16083174823877605
LJ  -0.48509792326146539   -0.0025178037790041874   0.31570919415535081
LJ  -0.32429844289542475   -0.18008632617498543   0.32674673149381489
LJ  -0.17145952043310844   -0.15998761833387529   0.16180452544326063
LJ  -0.019131730868102131   0.0048126912798648197   0.15068871607364129
LJ  -0.17494070921784971   0.0039216675511473172   0.33623192519045647
LJ  -0.016050329589615619   -0.16503521917018746   0.3270014196710504
LJ  0.17194735037249775   -0.17808789362205127   0.16573781487584394
LJ  0.34740363091371457   -0.021857795242411722   0.17489346460082678
LJ  0.14414166643245591   0.00097377406148065851   0.34300389280320287
LJ  0.33963341651732304   -0.18886994073659116   0.3392315251757535
LJ  -0.49762758431695281   0.18628984641582733   0.16345413840528994
LJ  -0.3292771732125756   0.33618228756199697   0.13802771575674824
LJ  -0.49958330394876732   0.34091626382542362   0.32544505988190253
LJ  -0.33639507693555826   0.15239762036994878   0.32280653976986273
LJ  -0.17375507776140423   0.1737611162831813   0.17680390020740736
LJ  0.013551949692632306   0.31315485566369433   0.16060810685598903
LJ  -0.16898998090259265   0.31006945860406077   0.34017592140659769
LJ  0.0061273848745931258   0.18068265457343879   0.33434546036067053
LJ  0.17354617152077609   0.14560018027728738   0.1731494730855776
LJ  0.33152798082715712   0.33736654144008454   0.18350102623715486
LJ  0.17119281047372492   0.32357365472783184   0.33301818943287764
LJ  0.35086034018931989   0.15540165101821218   0.3115820419290582
