108
#Comment!
LJ  -0.49991279766950525   0.18862182710920805   0.15638499612918191
LJ  0.21721824905874765   -0.16298837220035894   0.25343121342835584
LJ  -0.40297431267726419   -0.048064075490226996   -0.278984170453564
LJ  0.013368045842448132   -0.43708866495231974   -0.15522607674540756
LJ  0.10772193581491786   0.49525960766758587   -0.20649041906618051
LJ  -0.12200932575874573   0.49816121860264356   -0.21702489436343952
LJ  -0.21556072316067562   -0.40438411039904959   -0.20897078991292475
LJ  0.35360888663943285   0.14645951931018264   0.10460608880081891
LJ  0.14577835089416993   0.2992492540304077   -0.20018151932864675
LJ  -0.20143110110219287   0.19874307630077559   0.32652915305730257
LJ  0.40702906617472956   0.32998211978115577   -0.41744671282482188
LJ  -0.028474458771238616   0.30742948679458509   -0.4947386215302812
LJ  0.048216984234986035   -0.49143600762602158   -0.2693884232433913
LJ  -0.42382437432492798   -0.43543512682533858   0.10065380252570606
LJ  0.014933848349831276   0.29730755768098033   0.1831291745304737
LJ  -0.089426233679688105   0.39936747076700174   0.47867026051040118
LJ  0.23171194714216253   -0.28609079147788835   -0.47278814002216901
LJ  -0.2252092623781615   0.48154111650620879   0.057680749683533289
LJ  -0.38385307422387277   -0.015582784541375804   0.22217206050394706
LJ  0.10992943521299635   -0.35101598294096642   0.22709746542878975
LJ  -0.29476786859437998   -0.40285802933500531   -0.17552006877691442
LJ  -0.14614945653521666   -0.14964031652153573   -0.31368841319146473
LJ  -0.001713084197749703   0.43452055024941344   -0.13989631427101368
LJ  -0.43866353235591721   0.00084184109848152813   0.052715314653883925
LJ  -0.37809615830923904   -0.34202367391154892   0.47802827979027429
LJ  0.20295921376572404   0.15612116509209703   0.37789029327095902
LJ  -0.12697167395156686   -0.17885739358370506   0.42266049465381667
LJ  0.16657758168707132   -0.30349786327190686   0.15348636821864553
LJ  -0.22645520413629305   -0.36904769128768045   -0.3928550808958623
LJ  -0.34511081561952639   -0.16041865479776082   0.11907849440081233
LJ  0.26983315242890477   0.49540773576556058   -0.27354593094113389
LJ  0.41001611831996149   -0.3070084749354911   0.17167985559831564
LJ  0.11121549890899682   -0.20457082853485151   0.29003200952494479
LJ  -0.41732595089374092   0.03369004737621057   0.47716173837821163
LJ  -0.20962541251855957   -0.021122540476510264   -0.085572981344865753
LJ  0.10422747032471573   -0.081507574794359633   -0.4284449254031511
LJ  -0.24653598054973766   0.14713303047843132   -0.28546678851233542
LJ  0.27594806687022583   0.19664515780829248   0.27519597731141227
LJ  0.1955681135925014   0.31778515582344097   0.4308460237596351
LJ  -0.0027180653552532148   0.081109920108021719   -0.20660677023156135
LJ  0.41070318159495223   -0.16246146043758081   -0.14902340342158932
LJ  -0.26182557968288173   0.08284053519957206   0.4533868527355242
LJ  0.35599524282783568   -0.017563508009041551   0.3522458156050679
LJ  0.49451577433111699   0.48387074672949693   -0.046350652020827998
LJ  0.31405594401975717   0.29470389080573689   0.13229633086159293
LJ  -0.29032205955663049   -0.060325192364381372   0.41600895231443868
LJ  -0.33122990189561158   -0.28830701133188869   0.11728109939940949
LJ  0.031604510917050167   -0.42151669390414903   -0.31943883848692461
LJ  -0.16422597946911296   -0.30344563704133654   0.29447969773169247
LJ  -0.3033954791415075   -0.43142714192801279   -0.24669650378675614
LJ  0.10403597102123362   -0.011308934889257894   0.081676283818935394
LJ  -0.44566816122435093   0.39035772794893125   0.19927456762144025
LJ  -0.40867269189323535   -0.43381331264340156   -0.35185127276379896
LJ  0.29009043571205134   0.024367117138815363   -0.2381543603714304
LJ  0.3450102823464638   0.24530107361783016   0.078337315884901879
LJ  0.43884898657957605   0.35691588692031612   -0.014354819068612345
LJ  0.27070388423639502   0.15103982714929229   -0.40173565483607199
LJ  0.36793641675437089   -0.29912692665495388   -0.3732523234241697
LJ  0.42968125611782731   0.076726413204292271   0.16013037276125086
LJ  -0.031067360144473258   0.055796009737160333   -0.13451461173331139
LJ  0.300742134086112   0.3254085677180048   -0.46174200047671893
LJ  0.36241932344237271   0.47704192763284881   0.26193927285416618
LJ  -0.20464440953240262   -0.44463152556127467   -0.27472662563247668
LJ  0.1404591262582629   0.11169982887112215   0.31807970109155304
LJ  -0.070947007473347354   -0.19652634628654053   -0.11805474595080075
LJ  0.22271887858231479   -0.45913622867828696   0.48953423484520481
LJ  -0.24715775740648074   -0.24642405682460655   0.24536686453933812
LJ  0.0032062423710745038   0.067180324092097191   0.32917086583497124
LJ  -0.24248521590910829   -0.16793756551267308   0.48457777828027265
LJ  0.10431755686059871   0.21166396419950037   0.21890680400096957
LJ  -0.076707063741573836   -0.13022483357823048   0.21548248525807981
LJ  -0.2202051540630397   -0.30477042947214489   -0.24236596512463462
LJ  -0.34707311810838076   0.22639469056857819   0.12507347658024662
LJ  -0.3933571170216138   -0.27344854562900578   0.42654111666080013
LJ  0.38043294849103904   0.48712594986728458   0.41515226281009604
LJ  0.37862056846828712   0.058392106744872378   0.26310478912303675
LJ  -0.3275054828006817   -0.41691870270277753   -0.35552838480524512
LJ  0.31992182005935321   -0.23063630705076901   -0.17700135741250217
LJ  -0.054892240825899795   0.28648532870064064   0.14350042051589337
LJ  -0.36350488133824443   0.46613253991049319   -0.23876717458758853
LJ  -0.1548854520147864   0.27951516042084107   0.15829414543088469
LJ  -0.39539383727830779   -0.030594719030532406   0.45163323957610585
LJ  0.39089123874714193   -0.38751886319272399   0.079011056103013691
LJ  0.11765526422988651   -0.19683483108556962   -0.46389932788122312
LJ  -0.30151353768248762   0.45759612259345095   -0.44328999770267213
LJ  0.4592129293958867   0.031304266825339072   -0.49123587161484844
LJ  0.055417172214158171   -0.036791131050468155   -0.14097653446562486
LJ  -0.14679562114898653   0.076942355492438011   0.34633787540560246
LJ  0.14473530910450852   -0.044592123219278267   -0.31104992134562981
LJ  -0.32575966973100295   0.34214534584821288   -0.018001917814344931
LJ  0.021727886657734192   0.10190888957345691   -0.4884553956556843
LJ  0.17093083858919628   0.45252299028455739   -0.3599867798406417
LJ  -0.19536100292920411   0.041130957887447812   0.15479430393951432
LJ  -0.0099336794478344995   -0.44905812643059762   -0.051435737355450137
LJ  0.28391752454838504   -0.4265748677763338   -0.36302669224117179
LJ  0.39335627206780394   0.051106951002317158   -0.44679366369452644
LJ  -0.18689709033946858   -0.42424468702765156   0.23968560809985348
LJ  0.2649698644970398   0.38356558616278003   -0.009348502575145962
LJ  0.34414914133567615   -0.045120733851157967   0.22132788212745028
LJ  0.09419745096336414   -0.23174817485009036   0.14002382782485667
LJ  0.25277406320582796   -0.057071159403524883   -0.36226196376780201
LJ  -0.13169276911861244   0.2743724309632789   -0.088416256004681296
LJ  0.35147804730533971   -0.14131704794256908   0.090637417656128358
LJ  0.43067202138053462   0.25915356811524975   0.086151925098249302
LJ  0.24715381385185267   0.42461050767129127   0.10395713691436384
LJ  -0.40621834172609927   -0.19022223457030932   0.44537126613140871
LJ  0.39651517540651893   -0.11248521163119833   0.024350656330951948
LJ  0.094510066167965465   0.16606677971873035   -0.21767922006926532
