108
#Comment!
LJ  0.038644028463985888   0.29576577963989631   0.34677259785249664
LJ  -0.15040139569921229   -0.13173249889573083   -0.39728998891437084
LJ  0.31335522357171902   -0.22870101114027042   -0.25028491156734389
LJ  0.42130956193254587   0.32126170197620429   0.3847773169163996
LJ  -0.22700924243412454   -0.36391340474804856   -0.45099085569436625
LJ  0.22557780070974051   -0.037683122125022027   0.39690498406495761
LJ  -0.34853094596362838   -0.20233106794304601   -0.19216815761329184
LJ  -0.04690858115453566   0.48389575902570886   -0.3495960778915036
LJ  0.1781364512475079   -0.40124602996443548   -0.31032305305736507
LJ  0.18306449661931631   0.407199123226889   -0.49450094591352073
LJ  -0.1554795162311032   0.31502214658757821   -0.31075084193509228
LJ  -0.48251339621267958   0.37897315121421943   -0.3648326261115164
LJ  -0.42312954320652729   0.14644374067341637   -0.38700369852379363
LJ  -0.22848628655103964   -0.058352498783522166   0.429414961438083
LJ  -0.35410757679325666   -0.06030162909582356   -0.34271628893370054
LJ  -0.36813436915718967   -0.16971852898857009   0.49412785460817282
LJ  -0.013429774274708832   -0.29066227526259447   -0.33001677479899322
LJ  -0.31326103777376568   -0.15911979159349823   0.23027677587182871
LJ  -0.0022857790551256167   0.015487686802488888   -0.35938059359169994
LJ  0.18415107343427894   -0.18252696621192993   -0.47932326339769182
LJ  0.40808615570907741   0.040086341970153809   0.44709126634806956
LJ  0.24507156105858263   0.16281046303671079   0.36512232440456449
LJ  0.20686170741494592   0.12130797476793281   -0.43869890839291487
LJ  -0.017797147983479807   -0.34912150692169647   0.47399360810843022
LJ  -0.37007398495267141   0.28276824587169619   0.41633373218832415
LJ  -0.45255997812475363   0.067303781996950737   0.3163924390176151
LJ  -0.19410717783606221   0.14209606026688482   -0.21794898917882868
LJ  -0.23238460977541717   0.15790018401748562   -0.45336178991962089
LJ  -0.24102852051988863   0.066564389199806617   0.22585433095104165
LJ  0.099547139253555184   0.41391804243300973   -0.21522579896118152
LJ  -0.41757211859097232   -0.42994303515654114   -0.33158563884577319
LJ  -0.057275086289237324   0.37868484313054296   -0.098832364191078159
LJ  0.15440415687033368   -0.010108574574006478   -0.12765893857807237
LJ  0.32325842022037704   0.39539204853921844   -0.31615440314505078
LJ  0.18238140166956304   0.23892517328429871   -0.25584406725288256
LJ  -0.38607400382502066   0.2422439505461651   -0.20832135207212693
LJ  -0.33534521009847434   0.48366699745899627   -0.15701341197040319
LJ  0.39391567807132827   -0.38044833871105094   -0.38570060407029605
LJ  -0.47404548288694975   -0.32059896503898783   0.22469073060253608
LJ  -0.22489584048517064   -0.36933519989066305   -0.25871465429656804
LJ  -0.10146405601501143   0.3500090759282769   -0.49915787675119538
LJ  0.0027871601996196237   -0.42325984297995101   -0.12509282114479894
LJ  -0.025568686820468076   -0.093997991014285534   -0.090872515871765966
LJ  -0.036925146131339466   -0.4251201822652188   0.096967718201962511
LJ  0.076606006209184091   0.40668849928027284   0.063511579650503913
LJ  0.40006170950816   -0.0724489221363913   -0.11072054577596044
LJ  0.38876747146387475   -0.4190949830830985   0.0025538364277121264
LJ  0.44113863662568803   0.47892488090555996   -0.18505421755777113
LJ  0.42510820690534173   -0.082703790154997764   -0.35346458599144259
LJ  0.0028098082211296801   0.18993354694845774   -0.23555534993432517
LJ  0.435106491390996   -0.14303528353620476   0.11134523676721751
LJ  -0.21700780113775672   -0.046991007042450149   -0.18953304954473968
LJ  0.20018316969622021   -0.060637906885540639   -0.31083304161454312
LJ  0.43160548341769567   0.24489118661437689   -0.23203822132450022
LJ  -0.064251227512527084   -0.048988999376008979   0.26437074861279025
LJ  0.12265248523014952   -0.28411017990208026   0.050793792931222416
LJ  0.30618922933682235   -0.23960372360317081   -0.025111507829039391
LJ  0.32310714927528777   0.085993633956964799   -0.28149203945630114
LJ  0.13626509090907557   -0.24650357570096146   -0.14406569831347063
LJ  0.26836814242720497   -0.042314909730333666   0.058003000739544661
LJ  -0.24384879537195076   0.31704742707723593   -0.069508751886117007
LJ  -0.4274037282748262   0.3879442656927275   0.032952211237412966
LJ  0.2451050303030434   -0.41153778009298081   0.16302709094545423
LJ  -0.21460811506777658   0.12694463156855884   0.010004565100021602
LJ  -0.026317657572920233   0.0055060388920332576   0.084940890110008008
LJ  -0.022995354226703676   0.20306413187788072   -0.012269794748567158
LJ  -0.28879574555992926   0.25557507345995878   0.13937943130919553
LJ  -0.057232864517532164   0.17142705265169461   0.19128953177883765
LJ  -0.26608579794794962   -0.4987468876054541   0.17126460939558372
LJ  0.17889689314005003   -0.47340640458383648   -0.037097442626479966
LJ  0.18517739532214331   0.29237187697573747   0.20460730592230431
LJ  0.3270365464688591   0.37532851329717237   0.010353308039099444
LJ  -0.40664056140349519   -0.41550554615833057   0.014855601490286311
LJ  -0.48145125408970058   -0.36607586027756051   0.40538116158385107
LJ  0.37630264738173974   -0.19810042966270747   0.48504109536729584
LJ  0.45091463822401906   0.42918169726002381   0.1962762131324946
LJ  -0.31805903897739396   0.47146316439528546   0.37840152643798691
LJ  -0.086586324997338676   -0.21540988037913084   0.14845632684251092
LJ  -0.24530670823717227   -0.2959661340537923   0.094932409796732925
LJ  -0.28090316174887325   0.41247922904514323   -0.42297326485210263
LJ  0.097038812388341431   -0.49282667796695551   0.28396674830327684
LJ  0.33534759854472107   -0.45478353563324209   0.36340953763163786
LJ  0.1910566141615439   -0.38892683724297511   0.49259173861711464
LJ  0.16047060923894468   0.077357057836651907   0.21619429832782069
LJ  -0.49540412028650599   -0.33647818338984575   -0.14823378453443106
LJ  -0.45340357328924857   0.050778766532738863   -0.19456731585011608
LJ  -0.45248758361784325   0.043790563757689756   0.11783791935701858
LJ  0.47079531329236357   -0.11256878359680232   0.32287196349440367
LJ  -0.41974544480897263   -0.13011204581637362   -0.025035461335828662
LJ  -0.15623393676035241   -0.27807812354337302   -0.08826356317759447
LJ  -0.25900314065569191   -0.32668294637766204   0.33117209636903644
LJ  0.027174098524434712   -0.31985972912136212   0.2730754227436496
LJ  0.28322168413967969   -0.23549884655490944   0.31781277877151493
LJ  0.39228407816383914   0.12551899582933393   0.014472236239505783
LJ  -0.0074789339297787749   -0.11139091364273476   0.44244564610137938
LJ  0.3640531384690705   0.061564473814051647   0.20677471648497414
LJ  -0.416099521935971   0.1902477763186006   -0.016368864864568702
LJ  -0.18595952522120532   -0.46749519795831423   -0.038558689961767589
LJ  -0.48936620563000693   0.2212637543557546   0.17212700515931392
LJ  -0.2450103276012556   -0.081722077038161409   0.04512157649031738
LJ  -0.042499317448134906   0.11024748425293845   0.40077063711903638
LJ  -0.11310617871590589   0.38937538401155652   0.1057972388974875
LJ  -0.16896511594724131   0.29841205180418828   0.32391037452251004
LJ  0.062207714166145213   0.26716272777027134   -0.41498990706751115
LJ  0.12976175930899506   -0.14823810088781034   0.23785709438696306
LJ  0.17969170878657459   0.18520464896713087   0.0047987092498978923
LJ  -0.1146663848170862   -0.48635485067351991   0.3692549888109195
LJ  0.37266056504452966   0.23700631795731933   -0.43762753044297376
