108
#Comment!
LJ  0.41704376389854847   0.48831202216236153   -0.3715218190359223
LJ  -0.10277813195249924   0.013644018637161659   -0.3598800077811713
LJ  0.28603301316862523   -0.1781847484071645   0.083647988298173992
LJ  0.039063327278506345   -0.42331613401221568   -0.4384547862674894
LJ  0.33849742896949753   0.40512966454531701   0.12954859752144346
LJ  0.067790907733665112   -0.43574405474056793   -0.26275627353085174
LJ  -0.025010217420551102   0.26641166379588549   0.27831078533202142
LJ  0.00041179644229300379   -0.037469761555197899   0.085428323878078277
LJ  -0.28400875246720764   0.01038640385152397   -0.13654506489036677
LJ  0.18841950471627811   -0.22911686524863337   0.43311045562478812
LJ  -0.15715765944426416   -0.45621430540879893   -0.26386023627659005
LJ  0.16918240958757058   -0.13044605989648894   0.43425569376820089
LJ  -0.16694996612125115   0.38713379786037277   0.1944670327140505
LJ  0.28856972009334697   0.38938747611974384   0.20646065372291564
LJ  -0.28660091245397906   0.12453089314921871   0.43141663159867227
LJ  -0.38310966079544795   -0.15977642156204255   -0.47712219475000722
LJ  0.29102409021772369   0.45700724887325139   -0.059603028396140671
LJ  0.34947426432413792   -0.32479068020633345   -0.35407497729042403
LJ  0.081145988980601116   0.39066005820754851   0.14827979693089799
LJ  -0.034070611420075829   -0.36181431926212809   -0.38077265987618131
LJ  0.40663599593303851   -0.35877772615879239   -0.26929841084511569
LJ  0.46511921355629499   0.4859574528685956   0.30936174716898523
LJ  -0.0086331787099357231   -0.35813457947382366   -0.30403312780860769
LJ  -0.42603565747707739   0.092632991335100931   -0.47118454903746992
LJ  -0.13687998576965935   0.38810183516075547   -0.0086387652024410306
LJ  0.19586072707402644   0.45520428038301108   0.16700688678609726
LJ  -0.4984129813972793   -0.3953588142668723   -0.40148847447422498
LJ  0.43248204270750262   0.43797573334323381   -0.30304691890332325
LJ  -0.14707707708733719   0.49401538562953495   0.38936915733309363
LJ  -0.20773803963575824   0.38314980069872234   0.25191511271777345
LJ  0.45309681136402336   -0.27952073783659331   0.44397094686445687
LJ  0.03924896117847184   0.21482366709207271   0.37552933739134003
LJ  0.45960655377456444   0.40237924176610251   0.31446245719779203
LJ  0.26700626535704691   -0.06912707572624581   0.24968825894910976
LJ  0.48202497839356806   -0.25406884860479001   -0.051785740487667375
LJ  0.20273963667834222   0.44522070064949537   0.085110468285687635
LJ  0.14358052070223803   0.17731624305285196   0.4640327669016806
LJ  -0.25936434592485169   0.4777745960913472   -0.047718936938623939
LJ  -0.31506919540121781   -0.048610416297256785   0.44873964820166146
LJ  0.27683441030093336   0.1774337864929004   0.37272295489625484
LJ  0.30668451360497623   -0.34225980139656675   0.33695208991114745
LJ  0.16425736095346744   0.17353300201478591   -0.28903931332530408
LJ  0.26594552880716632   0.40624971140688354   -0.33224349617824395
LJ  -0.075970687317978805   0.10689904147861462   -0.44275634665521485
LJ  0.29462353695585869   -0.4808760970814378   -0.2934066146040229
LJ  -0.068173588901616872   -0.33042413897357686   -0.10021617697202698
LJ  0.18356320025816752   0.18246867882209386   0.3785515401707088
LJ  0.37111620640337029   0.017465675318742969   0.47678470511158
LJ  -0.4625994613893209   -0.40045425250599204   -0.1304063099989281
LJ  -0.17115089796681171   -0.068085941260240659   0.40520500453346903
LJ  0.057960111483287148   0.14202231750507788   0.21840131901596896
LJ  -0.04248677008082568   -0.40544879892168378   0.25633676884317497
LJ  0.48945167448963917   0.15706010566758155   -0.088140773061284525
LJ  0.37279602997253386   -0.4363554308895129   -0.37892778733996968
LJ  0.38876086807619292   0.36549427631870707   0.29648984137769907
LJ  -0.13664650560914676   -0.17828001971739024   -0.19301929579626453
LJ  0.43272015160382099   0.12605125391281946   -0.043655024932809823
LJ  0.30223821620805247   0.28324081870044737   0.031119541227726009
LJ  0.16558965577889953   0.076956137926555451   -0.17196345124004178
LJ  0.25366914290215398   0.090417894825107009   0.062980424043548242
LJ  0.15344343271382485   0.23173823538255986   -0.0023258808374852741
LJ  -0.25146392051243383   0.2019123639624025   -0.2166113161043545
LJ  -0.0069032205655984958   -0.044283120296699251   -0.14663285442662602
LJ  -0.070149075393629759   0.021494964737455942   -0.4593092068870207
LJ  0.47148756689776466   0.10317602823808456   0.39663485296943074
LJ  0.23544402973333869   -0.47119430815484054   0.47393707288681475
LJ  0.15176318565004829   -0.14116325705407223   -0.086877328647794488
LJ  0.05377094695766256   -0.16967316194891635   -0.46709862197358887
LJ  0.10948105917372966   -0.27939254737879171   0.3895524468833626
LJ  -0.39847677921721919   0.069542052473649862   -0.31875745665286981
LJ  0.30230335747448767   -0.43245476858490867   0.085183819981586015
LJ  -0.16289187062665028   -0.21807324924262875   0.023821292066562073
LJ  0.087112836269585062   0.098881958552823612   -0.31640518998116368
LJ  0.090212332018699465   -0.48256153665102247   -0.34967700834614623
LJ  0.38379156274166354   0.20627397398402261   -0.42799386619078816
LJ  0.0038683279023999954   0.19111715289868272   0.25008826261850226
LJ  -0.13184970378539815   -0.38678429779367435   -0.19057339698398237
LJ  0.26189765904443274   -0.49165225589598122   0.2522836550057117
LJ  -0.16225860408326748   -0.012012513005094937   -0.094448061555379423
LJ  0.44815682061782103   -0.42194170855035767   -0.315885862292826
LJ  0.33073843264597041   0.31549841510997512   0.38087910634184474
LJ  0.16781851583193078   -0.060487408222302683   -0.48829801745296558
LJ  0.2248825660875039   -0.18016804497446581   0.30297264130662155
LJ  -0.13053078036968824   -0.089312672128781107   -0.15149923142698976
LJ  0.48659871534073584   -0.34245043899361194   0.18417652912357085
LJ  -0.38872443212915553   -0.39656845357682585   -0.27991599059163103
LJ  -0.39521693665717017   -0.45098728727581022   -0.14157200130370223
LJ  -0.3507091773855408   0.026814627708455083   0.078886046825306089
LJ  -0.016201112122720396   -0.269988003861798   -0.40124392118699215
LJ  0.23648041118757204   -0.31511523356286836   -0.44443963178302226
LJ  0.010862376502456412   0.091380559472838643   -0.35427706447643215
LJ  0.1703459331962057   -0.4358625110795506   -0.02669656401294461
LJ  0.055302541739474957   -0.13545893017038929   0.079270656944001011
LJ  0.38804945458282558   0.11382572727954904   -0.11930092034583246
LJ  -0.11771677215387588   -0.049426906950341999   0.018067733778696811
LJ  0.28992790766319881   -0.41243697021486175   0.29598974047461846
LJ  -0.087170991103006176   -0.11784017433871874   0.21152120843408265
LJ  0.41575445850588927   -0.10446365109019456   0.42052570174144693
LJ  -0.45004630173203225   -0.26379076390366113   0.46470783629683127
LJ  0.27200872994811154   -0.28958521242199137   0.41400280987472149
LJ  0.024450323475777982   -0.44194594382335811   -0.03416472472726604
LJ  -0.13672569033450496   -0.31138732344723435   0.0021769691215534795
LJ  -0.30431962750273128   -0.4745553775760859   0.024255213094369517
LJ  -0.22098989921651008   -0.088130151722888239   -0.0084626141693732674
LJ  -0.12890388577896877   -0.050481968649331403   -0.41309593717142434
LJ  0.46588656096351311   0.056990750438466534   -0.04129768673163027
LJ  0.25607019111776635   0.49134448642329642   0.1067289428919866
LJ  -0.13100570089773314   -0.43815298810228975   -0.39289855736973878
