108
#Comment!
LJ  0.41696739839215907   0.48820015344132917   -0.37135365026418121
LJ  -0.1029554132474612   0.013780180147190214   -0.3597359398252426
LJ  0.28591483054934724   -0.17826645265194785   0.08378804548850044
LJ  0.039206392783746852   -0.42343875589836877   -0.43863148899195131
LJ  0.33852731410995496   0.40509072435117327   0.12941263372775219
LJ  0.067941769665317439   -0.4359115169178821   -0.26274471729209592
LJ  -0.024932514264533943   0.26644490894317363   0.27845390499839739
LJ  0.00047368239339905602   -0.03732200327469317   0.085330077528025808
LJ  -0.28399317282380049   0.010339891350047576   -0.13662750570912238
LJ  0.18844547936696648   -0.22896783801243314   0.43320877451675183
LJ  -0.15729968725014842   -0.45614674630800778   -0.26399192227485041
LJ  0.16917600206021238   -0.13050117269570324   0.43443566658648697
LJ  -0.16712929417833577   0.38722941741497297   0.19434015479569286
LJ  0.28870476430475983   0.38946586732783151   0.2066829740698328
LJ  -0.2865676989215068   0.12461252102314754   0.43115413219418919
LJ  -0.38301652337025405   -0.15985614317793029   -0.47721957466803566
LJ  0.29085854905524272   0.45693067477901772   -0.05966297161510118
LJ  0.34943257550173823   -0.32478568009522135   -0.35405700440395926
LJ  0.081067743164184108   0.39072507575682602   0.14828405302788042
LJ  -0.034108928459722493   -0.36194750552776861   -0.38086006847724252
LJ  0.40670761744759804   -0.35886063955002645   -0.2694371994988029
LJ  0.46506096868976343   0.48597249211564897   0.3092488030033046
LJ  -0.0087048844472513015   -0.35808958239153682   -0.30381957624435985
LJ  -0.42604294543144738   0.092746931109027389   -0.47111058088370106
LJ  -0.1367541599217959   0.38822330891655782   -0.0088180294846474539
LJ  0.19582489475167073   0.45518894508225793   0.16677582237930824
LJ  -0.49857115912968053   -0.39544821767793159   -0.4016640702565043
LJ  0.43249185724295192   0.43815321539470653   -0.30310214237497662
LJ  -0.14710350498175129   0.49411430852564509   0.38953813480124216
LJ  -0.20776135861657211   0.38297207352913837   0.25193134764720365
LJ  0.45297079223792769   -0.27966461034158813   0.44414840312717835
LJ  0.039144870278900082   0.21479084868450285   0.3754365846281747
LJ  0.45966623636214804   0.40227468362588192   0.31441636177308724
LJ  0.26682956431337662   -0.069229082523043523   0.24974170872119811
LJ  0.48194169054861946   -0.25427207083484199   -0.051802476436983075
LJ  0.20285244523349452   0.44513732054329425   0.085032234837805573
LJ  0.14367130608243603   0.17722568488565679   0.46387169224987063
LJ  -0.25930509419213171   0.47789628909347182   -0.047642077193985714
LJ  -0.31505962709841495   -0.048647613285455721   0.44887094906347214
LJ  0.27673418402329641   0.17769332583452496   0.37289735697550147
LJ  0.30654365365877312   -0.34229826097611182   0.33697217780478789
LJ  0.16440583955525742   0.17355199845279556   -0.28902402761309676
LJ  0.26607081343832495   0.40620941280249184   -0.33244650956513588
LJ  -0.075999433951737069   0.10693152255783178   -0.44278482912318046
LJ  0.29464219330711744   -0.48080878148307699   -0.29349020071605175
LJ  -0.068147826925918586   -0.33036413773880574   -0.10018212424649664
LJ  0.18345004864197925   0.18257029930700872   0.37854472380748611
LJ  0.37103142501056102   0.017386900783585898   0.47679888586265951
LJ  -0.46240796863747197   -0.40040109602188495   -0.13033824815439016
LJ  -0.1710683028589691   -0.068140698849318712   0.40520401115409044
LJ  0.057919313716189427   0.14184264290066192   0.21818893734266021
LJ  -0.042522128380280383   -0.40531687779377767   0.25639481156974292
LJ  0.48946197080168075   0.15718402066559284   -0.08810958859674943
LJ  0.37292073859984853   -0.43654038586370486   -0.37896997796626464
LJ  0.38882040339793067   0.36560175524565908   0.29633519932338354
LJ  -0.13661641398360649   -0.17830483701499575   -0.19314452800233425
LJ  0.43282504311923731   0.12597761780541453   -0.043524000695561275
LJ  0.30221890128631157   0.28310511417479028   0.031115641945533744
LJ  0.16570518885853683   0.077014368299600622   -0.17185007345367143
LJ  0.2539311051192053   0.090691421482686954   0.062930080434592292
LJ  0.15338847792450125   0.23187230815484552   -0.002323771019792972
LJ  -0.25148431792718806   0.20194534916834309   -0.21650533478250883
LJ  -0.0068669187639924089   -0.04438586548801033   -0.14661540610732124
LJ  -0.07019968268431398   0.021608935420808502   -0.45921328197057737
LJ  0.47150098360569598   0.10323520626056386   0.39663139895347643
LJ  0.23530331622536693   -0.47115446720475845   0.47398691786964031
LJ  0.15179648408853125   -0.14104364008895529   -0.08688622255207093
LJ  0.053704967223015647   -0.16971956367121704   -0.46692445885910266
LJ  0.10941721871194847   -0.27948779571727866   0.38953908285820366
LJ  -0.39857829427628338   0.069609144599682968   -0.31872022647754022
LJ  0.30232810081799999   -0.432470539429336   0.085398248861526055
LJ  -0.16305429102994315   -0.21817956101569855   0.023723930494169609
LJ  0.087133327062815777   0.098742242470186176   -0.31621122724722628
LJ  0.090417080527974356   -0.48256603189030811   -0.3496708189357145
LJ  0.38384208942599957   0.20621155699038787   -0.42810775133502799
LJ  0.0038883430408750749   0.19120788119992316   0.25026373601757046
LJ  -0.13190426376772166   -0.38671722765561711   -0.19055039484407055
LJ  0.26172817435572726   -0.49175517977327765   0.25232122977021643
LJ  -0.16215803476328905   -0.011903353660821089   -0.094347898073649253
LJ  0.44832369514264198   -0.42175724694960132   -0.31609227968561909
LJ  0.33064249101038606   0.31537114804458138   0.38079793646289123
LJ  0.16780691336903411   -0.060413674456491907   -0.48841175763492944
LJ  0.22486323049610293   -0.18027376103428774   0.30311703732329359
LJ  -0.13028297251726165   -0.089265376827498147   -0.15145144773853159
LJ  0.48682671139746564   -0.34245856176686951   0.18417549398966521
LJ  -0.3885543356599504   -0.39659530008787319   -0.28005447936631767
LJ  -0.39535272275528183   -0.45100975523104786   -0.14165609105943275
LJ  -0.35060506486737841   0.02700409250681415   0.078830381423408605
LJ  -0.016164798627695497   -0.26987136057013394   -0.40132323007292686
LJ  0.23647561796556002   -0.31510622395085675   -0.44452690246553656
LJ  0.010717855508691676   0.091385412484940282   -0.35414984782430986
LJ  0.17032429306529179   -0.43598532651399097   -0.026755364825858944
LJ  0.055276673344256309   -0.13558133646664056   0.079317897192645759
LJ  0.38811060692346988   0.1140176751712289   -0.11927425167689933
LJ  -0.11772065628522274   -0.049619674540254524   0.017937527912382688
LJ  0.28993381745861896   -0.41262580825009365   0.29607874218443847
LJ  -0.08702676854645966   -0.117926972647743   0.21141138251020986
LJ  0.4156873555176761   -0.10466382402211473   0.4204641174598811
LJ  -0.45019203372691702   -0.26384897491510817   0.46484056577965194
LJ  0.27209555088022508   -0.28963611105531234   0.41384017896578185
LJ  0.0245249933771155   -0.44186186737422278   -0.034281280916198878
LJ  -0.13669676118364316   -0.31139628133581232   0.0021774156717957998
LJ  -0.30438344722753052   -0.47448268445643321   0.024284929400452029
LJ  -0.22082728135734148   -0.08823060650695122   -0.0083284458825078362
LJ  -0.1290553458353943   -0.050423113165681183   -0.41296684541023221
LJ  0.46566784228759944   0.057133264599598221   -0.041224955741042991
LJ  0.25600876865515226   0.49143146244550556   0.10671628820127131
LJ  -0.13111851400338304   -0.43810381897319889   -0.39261964870161331
