108
#Comment!
LJ  0.4273365555960692   0.41460543423398477   0.40702232748254508
LJ  0.45153116760658579   -0.19104404805955627   0.30668662347342074
LJ  -0.43967430097114535   -0.078712927338495595   -0.021299723350300444
LJ  0.028169771369798619   0.45742488648049995   0.33019655340153031
LJ  -0.49573067765323348   -0.21348618152758533   -0.21962642378396224
LJ  -0.37963250008555638   -0.35509144277580229   -0.14542622609463135
LJ  0.19465360874450097   -0.0613020426549645   0.39828083930985914
LJ  0.097611564868887002   0.47692839007051308   -0.051920210885749205
LJ  0.41683555871916361   -0.44683553675865278   -0.38571268475155474
LJ  0.35145431439373481   0.2104259648743026   -0.072507106144321654
LJ  0.36140343645185063   -0.13714999924093962   -0.35508111233731932
LJ  -0.13960754996259489   -0.33386282945489859   -0.43418511630995366
LJ  -0.16434466616051138   0.011301180826146137   0.40922143345806355
LJ  -0.0053246870311139342   -0.036626521984833016   0.4956217015110102
LJ  0.2926713520517577   -0.31508967390861314   0.48988062293220103
LJ  -0.19266750452612014   -0.47364186961585886   0.25667519319486121
LJ  0.46323879805834656   0.28351551147268833   -0.436122413665188
LJ  -0.077459781453157628   0.39018351311806404   -0.26408450319878707
LJ  -0.13456738777622193   -0.4168089011429264   -0.24790051218085801
LJ  0.15671300672417399   -0.1490116956559869   -0.3767079142550348
LJ  0.22055809718120198   0.066234649677233401   -0.43029528177697024
LJ  0.24412502572632228   0.26161030094255222   -0.49887543983971905
LJ  -0.17844465409252533   0.077910707295245213   -0.055805114894669827
LJ  0.39348125342713464   0.38260500052334229   0.031216349058911703
LJ  0.15561906090634411   0.13113574028839545   0.10816515898124045
LJ  -0.32039823571562537   -0.42861723833014953   -0.33596324902943381
LJ  -0.36026940768498666   0.37530394422850355   -0.38306376753737625
LJ  0.17959016908990572   -0.10230959802366558   0.017751141158839415
LJ  -0.0032723508017422076   0.0089069021121842822   0.019641097805160108
LJ  -0.35654333760734369   0.13088057374978737   0.49723234140686595
LJ  -0.43646602050121314   0.01570495154020456   0.35595993753855193
LJ  -0.32555632787047328   -0.036874843119433419   -0.21938692546466618
LJ  0.021441674083932355   0.14796653141302574   -0.39444270577526735
LJ  -0.00048634834138267652   -0.31384951693511187   -0.11494993457856213
LJ  0.090424310750781431   0.47574175511110206   -0.25478582025841473
LJ  0.45313291755654578   0.37074089228213813   -0.24875171835079729
LJ  0.15094803660992334   -0.31060911745067471   0.011232288541991127
LJ  -0.32784850963791212   -0.25173409129437879   0.33862603422255227
LJ  -0.17980011659196257   -0.26936954409573655   0.1747591413395399
LJ  -0.1473344369763156   0.37568421158569448   -0.062623784410745523
LJ  -0.37034561715397912   -0.29016355010151562   0.043028086960961422
LJ  -0.23887418450606773   -0.23008313095300692   -0.30422985459160229
LJ  0.26224732852898008   -0.025757746223455537   0.20140357393821579
LJ  0.0075402947120821583   0.33505105887868408   -0.46071919711618137
LJ  -0.25629249824763845   0.30812008386537143   0.11986555461190365
LJ  -0.029605698533690814   -0.21592339280560177   -0.30762553019280731
LJ  -0.40481111278032167   -0.10704000950689115   -0.42378294912656217
LJ  -0.4467008015559551   -0.38440020011275183   0.2471929072151777
LJ  0.030071136828158814   0.29436659567512979   -0.019423944962675216
LJ  0.49683073843098174   0.092105676040639628   -0.36900040371296638
LJ  -0.39389087553408914   -0.11966515884104897   0.15659055106860015
LJ  0.39232059360269589   -0.054943203256045937   0.46478234347611486
LJ  -0.20733842464448865   -0.049859178943245437   0.20406623602071697
LJ  0.26458401565832285   0.47287081139991716   0.48148383885937679
LJ  -0.29292081968213024   0.18086299828560001   0.32035918502847305
LJ  0.12010172479933788   0.49688818536970214   0.14504683729257456
LJ  0.19775243792371117   0.08865274712037309   -0.12630085222613005
LJ  -0.048172619114716479   0.19376830101731984   -0.1727818811675037
LJ  0.27935754817606301   0.4412096400553624   -0.10940325140592896
LJ  -0.24275864746506973   -0.11188747140097519   -0.0057219043448712729
LJ  -0.10139210084587151   -0.12851415205334701   -0.15481268469735579
LJ  -0.041408673417552402   -0.40026233758886115   0.080372847784392534
LJ  -0.18836299128646677   -0.31604119654850749   -0.033871090804608241
LJ  0.36382377842222013   -0.41637033308794846   0.24865156285795437
LJ  0.043124285916034524   -0.22908060928273818   0.48778392461976056
LJ  0.49645354939642611   -0.4895142583435636   -0.081199807040027883
LJ  -0.43661297428715151   0.40311889211021229   0.1904756374126215
LJ  0.058813123755741242   -0.012274755312190969   -0.25316319267636311
LJ  -0.0034419777017141726   -0.19715421338317429   0.069352200969015107
LJ  0.27421372686704976   0.3996745683519809   -0.32074581880159153
LJ  -0.20278217628207307   0.44513752218779262   -0.47044614885252034
LJ  0.38613353605235318   -0.17476811895133898   0.086764269131372418
LJ  -0.31140211865799561   0.49697099047976739   0.04681496466778827
LJ  -0.348810333783726   0.31709031851818131   -0.10844629623326932
LJ  0.21425785976243708   0.32417036154363088   0.056492178799112863
LJ  0.33014720096820077   0.18698936170902788   -0.28369281503664162
LJ  0.30976955738827089   0.11878377569883254   0.35429260681386371
LJ  0.02735398450232248   -0.4460530652981135   -0.42591378857789064
LJ  -0.37141229216818372   0.37443865402568544   0.39704280062338171
LJ  0.054581884530903173   -0.31961936889576209   0.22433301440842587
LJ  -0.45865738753713198   0.23673486626768531   0.081637839289155356
LJ  -0.49588895701396191   -0.289170529650978   -0.46162610728533027
LJ  0.13062435101542744   -0.38932975438777717   0.38467221885153452
LJ  -0.36828081683731151   -0.43536627015417317   0.43177858069518171
LJ  0.26036957429021362   -0.24352560091178033   0.27836199642243614
LJ  -0.31037559210713739   0.18467544284434986   -0.27215758099964782
LJ  -0.10264512390842984   -0.35506957858361482   0.38723991192524304
LJ  -0.45827069869292736   0.1458795609640488   -0.13651536816354243
LJ  -0.084037512688498184   -0.1470155382206324   0.31081601166337586
LJ  0.36220835502567683   -0.41137323045717727   0.056412051170394051
LJ  0.056706477578365097   -0.029373736006767216   0.25559168962375473
LJ  0.34007091598901446   0.051972921467569794   0.026781507920406154
LJ  0.46802985786176404   0.039015402566087272   0.17428980605477321
LJ  0.23282562312476635   -0.15267551101994858   -0.17243647795052658
LJ  0.099501514280359152   0.16409822105455785   0.33212940853361267
LJ  0.24126883935158186   0.38834514979801593   0.28688535135648391
LJ  0.49641150205460199   0.20320058113480305   0.31583948491015196
LJ  -0.18148123615468637   -0.046719549666093069   -0.38694965302742768
LJ  -0.16459043225156225   0.19737689858723545   0.48942768798723191
LJ  0.40553649031568118   -0.0054184302045172522   -0.18350354241086836
LJ  0.3469716400643143   0.19669751859799811   0.18116780213243389
LJ  0.1683124524992812   0.29213832577428017   -0.19664957926442783
LJ  -0.10815743744215817   0.12362909124565925   0.20517486661112724
LJ  -0.16035952406309495   0.34913855352508488   0.32875598479290707
LJ  0.01872596201140151   0.30282822149439026   0.19179607699352161
LJ  -0.35297785593183262   0.051030520415755537   0.099544364714105868
LJ  0.39976666311626896   -0.3736269334198401   -0.20257242151246674
LJ  0.19707136876188411   -0.3370026075382509   -0.29172522778092747
