108
#Comment!
LJ  0.038637240609024126   0.29576618642425645   0.3469548834684133
LJ  -0.15082777057864649   -0.13139853938259619   -0.39712324888733153
LJ  0.31333052782702425   -0.22904910577072263   -0.25019598765434492
LJ  0.42141719090892027   0.32113287529547052   0.38460427817274351
LJ  -0.22703781489271108   -0.36395877461247322   -0.45082109416127131
LJ  0.22580356249126429   -0.037615226683372839   0.39687950720652587
LJ  -0.3485397661491334   -0.20262065453015093   -0.19204357468496508
LJ  -0.046935411000932362   0.48365756260437953   -0.34968941954582755
LJ  0.17786798078082161   -0.40129925011330103   -0.31002496973026833
LJ  0.1829747312631258   0.40727796795443744   -0.49460375134105689
LJ  -0.155391349364502   0.31496272918545332   -0.31078630547963082
LJ  -0.48258035560993762   0.37887095662094694   -0.36470033226595527
LJ  -0.4228290610455453   0.14659189097921355   -0.38697131780480443
LJ  -0.22896581125034499   -0.058359726080093731   0.42910787425883268
LJ  -0.35417376833731457   -0.060307945432649453   -0.34266234742710933
LJ  -0.36798674954797445   -0.16974304013201569   0.49429313426287719
LJ  -0.013682233834350995   -0.29067749727165587   -0.32997174331656215
LJ  -0.31365285151957162   -0.159203833190353   0.2304751210364811
LJ  -0.002337606159566896   0.015295698983074224   -0.35946341996152253
LJ  0.18416111273378868   -0.18268691062853384   -0.47946312005263614
LJ  0.4081454398760877   0.039976973603897008   0.44705559878102441
LJ  0.24529623694553401   0.16278032976954679   0.36491131777350688
LJ  0.20691032141371909   0.12144287139002792   -0.43873239640676936
LJ  -0.018170845090404963   -0.34911588104145441   0.4740351168939782
LJ  -0.3699529684617594   0.2827042223158695   0.41665699076550289
LJ  -0.45269756293942409   0.067009857792890842   0.31683337112671134
LJ  -0.19413846257114747   0.14190438916037831   -0.21780888446484478
LJ  -0.2325141996341557   0.15768443338988838   -0.45304350893757223
LJ  -0.2408015681644548   0.066496841150456301   0.22576610579362677
LJ  0.099937606280686958   0.41383886807087328   -0.21520743676182452
LJ  -0.41790021747344647   -0.43003081757091527   -0.33170095278073786
LJ  -0.057457413326350008   0.37892891378078142   -0.098990593548300324
LJ  0.15411313445389357   -0.010553899212109745   -0.12757077982003695
LJ  0.32328099194157783   0.39540627048933402   -0.31642231199534504
LJ  0.18241724763477826   0.23892080256940579   -0.25579910234066755
LJ  -0.38578406770273388   0.24195060729644199   -0.20797217825666059
LJ  -0.33529880621275787   0.48388139753379733   -0.15719638373070516
LJ  0.39409165539058705   -0.3808992672306073   -0.38588023826012258
LJ  -0.47383158212399945   -0.32048101293319364   0.22475280101267503
LJ  -0.22479403705924   -0.36937863688224537   -0.25882399994249844
LJ  -0.1016240529270699   0.35017020372653329   -0.49921397875031759
LJ  0.003174708281531101   -0.42278316597474175   -0.12527117759898224
LJ  -0.025850208918129863   -0.094178511591266598   -0.090758094751140467
LJ  -0.036681874247161503   -0.42519085461528022   0.096922852720273539
LJ  0.076213616632046663   0.4067036455080989   0.063640195318621834
LJ  0.39987853979318322   -0.07258473080660352   -0.1105271960458753
LJ  0.38878166010185389   -0.41907402415679812   0.0021791341765895578
LJ  0.44090667259443422   0.47919625658490228   -0.18483592671337867
LJ  0.42516380212579319   -0.082399446703842305   -0.35345791972857704
LJ  0.0031889290019857445   0.19032649588360595   -0.23567605872571984
LJ  0.43506301142295511   -0.14321472810614505   0.11135181500381233
LJ  -0.21707944562146417   -0.047275557819623566   -0.1893380184006172
LJ  0.20005281675211956   -0.06051335613394962   -0.3108543132400976
LJ  0.43151602267814843   0.24484910443192967   -0.23221332194205516
LJ  -0.064054531415266361   -0.049141576043037288   0.26437823868562021
LJ  0.12253674487394321   -0.28405625799171147   0.050819404298482446
LJ  0.30622472099716025   -0.23952522118783404   -0.025265486733609642
LJ  0.3231574195243001   0.08594284945894301   -0.28155264725593326
LJ  0.13600319505635353   -0.24622828806660349   -0.14402040740185293
LJ  0.26864280604054741   -0.042601317555253031   0.058037003401513895
LJ  -0.24385102564662131   0.31679602305849514   -0.069391898039082953
LJ  -0.42708048565829998   0.38794392242965087   0.033082536321520487
LJ  0.24500256351433181   -0.41175321540407728   0.16303520859184903
LJ  -0.21458901133203792   0.1272777755676196   0.010172385439110313
LJ  -0.026302180435066064   0.0051025680181553019   0.084999079424065246
LJ  -0.023065915660794547   0.20318026275449833   -0.012120686341576361
LJ  -0.28915278079658335   0.25545639923071956   0.1391966033751959
LJ  -0.057321894299204486   0.17160677397244367   0.19079228023874831
LJ  -0.26571375032420674   -0.498640494252091   0.17148635932703182
LJ  0.17939154964967466   -0.47315908631037523   -0.036628239705161852
LJ  0.18551407951223842   0.29226608447798419   0.20454000719427892
LJ  0.32713633230033151   0.37549590196247373   0.010494280178314806
LJ  -0.40649006085217282   -0.41561379819806155   0.014699339033422219
LJ  -0.48144706758914835   -0.36595224252739667   0.40543804960647639
LJ  0.37610649884308883   -0.19807218722800049   0.48497414138577594
LJ  0.45114913350944419   0.42871345449756093   0.19631761387567445
LJ  -0.31840591643493582   0.47153295546992197   0.37845880736219389
LJ  -0.086169381966251901   -0.21536431797347569   0.14868380272865964
LJ  -0.24523424158192911   -0.29582954040272869   0.094406953088675083
LJ  -0.28060317828596237   0.41234165837137526   -0.42247845263369649
LJ  0.09704252410495702   -0.49215630819235501   0.28399871238343471
LJ  0.33538255285576779   -0.45513058555822206   0.36340090676561143
LJ  0.19134622815392657   -0.388650586316237   0.49247529861140799
LJ  0.16060463649349313   0.077363506581417676   0.21622316392737628
LJ  -0.49551896955501901   -0.33608354815462121   -0.14795332407926048
LJ  -0.45355732080719102   0.050647650325830983   -0.19463123950421238
LJ  -0.45239509340251255   0.04358595634312154   0.11738484008967984
LJ  0.47082802298701976   -0.11271926853607751   0.32292167203194633
LJ  -0.41952032528532873   -0.13008107165441526   -0.024718182703839887
LJ  -0.15631621508062465   -0.27811420860347735   -0.088295221530063847
LJ  -0.25931316728399018   -0.32655457785411679   0.33126400941674006
LJ  0.027141978230276417   -0.319662900449244   0.27297804813949839
LJ  0.28325711954637661   -0.23575870538683319   0.31781232112682423
LJ  0.39218484139573406   0.12555118740088331   0.014564986319888248
LJ  -0.0076856026948919059   -0.11099585801948202   0.44249534488299103
LJ  0.36400666113329327   0.061733043541122953   0.20652084232850629
LJ  -0.4164554673587868   0.19042110859935299   -0.016077200565234942
LJ  -0.18587554849205601   -0.46730414509633639   -0.038926949826642313
LJ  -0.48898704574820528   0.22137834614834942   0.17198668240852694
LJ  -0.24525518849425157   -0.081780062562200537   0.045211151045978823
LJ  -0.042358144408015906   0.1103548857167005   0.40057745823519275
LJ  -0.11346316641797076   0.38929458131481443   0.10574366357022394
LJ  -0.16894602175913292   0.29879003727740233   0.32364476041831935
LJ  0.062201602531517991   0.26685524931601801   -0.41515477256935646
LJ  0.13002622177884959   -0.14818841716885278   0.23764165411513044
LJ  0.1793183791665936   0.18529555477613022   0.0047485947775091552
LJ  -0.1147335835130653   -0.48628373553132609   0.36882072400783383
LJ  0.37284957219112869   0.2373398277121308   -0.43781691159239899
