108
#Comment!
LJ  -0.40652299423416666   -0.1462552721798254   -0.1538019615472922
LJ  -0.26267122055844716   -0.20575097158743921   -0.10757908700768636
LJ  -0.18686398030312071   0.26041848972781734   0.25943021198314964
LJ  -0.14890818094600419   0.45286436906183947   0.3857018682581751
LJ  0.15384536721872855   0.034864663119337627   0.14785824884337886
LJ  0.20867573121633759   -0.062757251989192159   -0.39347077780318157
LJ  0.40138846980337572   -0.10894525926756181   -0.098731724372971438
LJ  -0.47531369800729478   0.38082485841481595   -0.079925954555762041
LJ  -0.36064220011789805   -0.17501032127471233   -0.27585505833720997
LJ  0.47549824523260736   0.1163103752260414   -0.4620266489067355
LJ  0.41409003205082556   -0.46424578154572405   -0.00070193658659754052
LJ  0.023474398803148538   -0.32442753289807519   0.088577738456465577
LJ  0.18915952505566827   -0.013945011187133729   -0.47713008684612523
LJ  -0.36986493443852847   -0.41058607541087683   0.45533654349928893
LJ  -0.0039091941399244977   0.088863226900533457   -0.48416456132925956
LJ  0.075354917160946014   -0.16289936310019973   -0.39225256136744985
LJ  -0.48505836036429018   0.1002616764261748   -0.14219366530860242
LJ  0.42742808485247474   0.2096588362046499   -0.35328727060317511
LJ  0.050192902245716951   -0.18398158892746   0.12839973785724579
LJ  -0.33479074237670087   -0.41933051127075088   -0.32610250076232011
LJ  0.13295817693444195   -0.038209125958136879   -0.36700970915653758
LJ  -0.18635965527280818   0.32926779416204821   0.47149542202473299
LJ  0.26241463784365004   0.03911950761845475   -0.34958945976905514
LJ  -0.11439189187756856   -0.34625470248120033   0.2074003327475224
LJ  0.18744645293823228   -0.029759095563195989   -0.1640754139914723
LJ  0.12573999678088801   0.20077750519999471   -0.41564914828743293
LJ  -0.10031617691867725   0.43875889052133427   0.051736479594912357
LJ  0.42324289782307128   0.45509691527197127   -0.47424599438083953
LJ  0.41786799213986842   0.39491691051379169   0.37872475897584568
LJ  -0.14965844368844811   0.14980179816979095   0.24820856570675162
LJ  -0.01678072946442781   -0.41906075495501549   0.23549131772255724
LJ  -0.39789439990746006   -0.28659895026105847   -0.1184087294870725
LJ  -0.28348300239827284   0.17066112916991782   -0.098827519582615445
LJ  -0.046676799714116958   -0.44940659800703964   -0.49087607188236487
LJ  0.14630893774359968   0.058571170139851018   -0.38247414909869759
LJ  0.33894205953103879   -0.0099230937455637575   -0.15052907422204662
LJ  0.46486539926176951   0.48206604373711859   0.099463810904764249
LJ  0.35115468011270817   0.20806165431832674   -0.023928590667539034
LJ  -0.030886089706226159   -0.38392619258256194   -0.19252458820561161
LJ  -0.25271820982690524   -0.26456564963437662   0.11569884686122495
LJ  0.33010692724244839   -0.18763605459342891   0.14721763972563354
LJ  0.3328378089618958   -0.38873780904688343   -0.49922408975786053
LJ  0.37177271716275712   -0.30298600878664389   -0.381372743114756
LJ  0.10658645362586043   -0.22733099947670035   -0.4800872718048631
LJ  -0.10274665370789673   -0.44184231706638555   0.14245941969871515
LJ  0.025382930981083959   -0.26147380060356762   0.37362633890651525
LJ  0.17823051121185812   -0.33167503275626936   0.029300802810731962
LJ  0.20228553680034175   -0.30802483684257637   0.44932033837823787
LJ  0.13091889087108766   0.030340922985240038   -0.28478701452462013
LJ  -0.063039945926418359   -0.17601649532275462   0.30560176140961576
LJ  0.34530565540795888   0.38773290245672482   -0.15509450706184102
LJ  0.085799399170262206   -0.092530014883995843   -0.45335275978470396
LJ  -0.11584384941633707   -0.43216332203184321   -0.43212957819370185
LJ  0.49410489271078528   -0.1178078017252505   -0.12393609735142704
LJ  -0.092695658017409061   0.1765024122056075   -0.36684547540276302
LJ  0.13105259106369049   0.27614225098479672   -0.15165587573468023
LJ  0.09308733965737058   0.30074663479077451   -0.21726546098427002
LJ  -0.33763168879867289   0.49928709969198948   0.22079097311971393
LJ  0.28300523922591819   0.40165765454157637   -0.20726868726749231
LJ  0.20978418906010282   -0.30920904002139893   -0.43153703169506819
LJ  0.42215213918570288   0.44106295020271641   -0.20494362460726906
LJ  -0.28645051486075734   0.1853731529934336   0.014377788009672786
LJ  -0.23292087763826405   0.35949744780864706   0.16752323771017102
LJ  0.11327950282949334   -0.29603291089903938   0.2322677294702869
LJ  0.105450463799132   0.26853527326173932   0.030801498328236296
LJ  0.39170984774183948   -0.21178817807173042   0.22162437299659063
LJ  0.23562592910829136   -0.075462780072338601   -0.24605323712953042
LJ  0.076518813385862847   -0.34568564890194542   -0.22793203543135424
LJ  0.44189519403235544   0.019598024118319526   0.22121653288826124
LJ  -0.030011699004190651   0.035866697357003083   0.26564564342731528
LJ  -0.044438392114234317   0.2790466576170092   -0.24159624367875651
LJ  0.2762099906327975   -0.27509366397133522   0.27088902726266534
LJ  -0.33188651971628896   -0.1036307673038364   0.27833240567842832
LJ  0.034243482168837783   -0.26154130754652699   0.48701306967395053
LJ  0.30124952808573741   0.37454555690291141   -0.37716760745823036
LJ  0.079149803148013537   0.20850790464351265   -0.23729838746529786
LJ  -0.29498987723327819   0.39164445263711528   0.11532772121047258
LJ  0.08005212394400732   0.32947755551005214   0.38199295395553812
LJ  -0.41230275541556366   -0.41267663868132731   -0.048905198396856822
LJ  0.47376193597901917   -0.04123497292747428   -0.077373208039290611
LJ  -0.42337357803209896   -0.030040727887478316   -0.48239423347843169
LJ  0.047260535372768371   -0.037289320046447971   -0.33376807979623774
LJ  0.1819719035903197   -0.3462240600686865   -0.10872079668289163
LJ  0.022487230575369357   -0.083255571718218624   -0.39532471933865965
LJ  0.3889625392127305   -0.24629542842049665   0.15038079473824495
LJ  0.1787618840107443   0.37721810097272879   -0.42707689921645736
LJ  0.17659288277875437   0.27302078144770264   -0.3783310521235233
LJ  -0.31897272676211291   -0.037406087798441512   0.3730909379847307
LJ  -0.33554626986032782   -0.268730341043728   0.4369600202430477
LJ  -0.3956221077919882   -0.45463693343460448   0.024563082272017617
LJ  -0.37957577806292175   0.090456166001728178   0.49719573057162014
LJ  0.20662488561881207   0.33692259708851319   -0.037113056081252566
LJ  0.057602319846797305   0.14718537930424869   -0.43657299389282622
LJ  -0.4403915516369224   -0.099990802976234333   -0.26959256117450114
LJ  -0.3880504509250095   0.19825330338519326   -0.052148050150964513
LJ  0.19812037634584651   -0.074552777812025017   -0.042174645642281884
LJ  0.43288321393785451   0.26068252265509345   0.10043324075296232
LJ  -0.41101186619834545   -0.41234195342427726   -0.29954148254199264
LJ  -0.48593172544525504   -0.23575221342646352   0.14131520862316543
LJ  0.33126348358571056   0.31327068385574836   -0.24719810186588881
LJ  0.28200720512080851   0.04672000337517624   -0.097679946672888984
LJ  0.39238689909379171   -0.014679186113103497   -0.079247527566812526
LJ  -0.37738347531041821   -0.34135747945902595   -0.065892859503604753
LJ  0.48193594027381975   -0.22440546586003832   -0.43185344697845346
LJ  0.40241028907759258   -0.42345188782313703   0.42628324751350455
LJ  0.20780839465352832   -0.049537184522412077   0.085482331845662299
LJ  0.46062409800977994   -0.1773653505430689   0.48469592576967119
LJ  -0.15678395898432337   0.48327137394436659   -0.34343483472439218
