108
#Comment!
LJ  -0.27721003661937271   0.1976635387029147   -0.12763865518982606
LJ  0.1172598635022741   0.21039528227669649   -0.2564756421320149
LJ  0.20333121411999286   -0.26840253077364956   -0.33505860592761794
LJ  -0.19580586044099019   0.036837319568402298   0.46851164772712739
LJ  -0.26523064739735386   -0.46336286384679781   0.20168339870716576
LJ  0.44868046819704099   -0.4772361884728567   0.27785249287241964
LJ  0.024713645788253091   -0.4752849673557526   0.28068537097078461
LJ  0.22101571777145615   0.13548725153619773   -0.24824452114589365
LJ  -0.28990940795354447   0.45861748839167721   0.26546432485808197
LJ  0.42352835346850742   0.038758812995733805   0.17362162009931978
LJ  -0.3984663176398156   -0.019580899353844265   -0.066149092186068181
LJ  -0.43785181191887868   -0.3124427999470476   -0.35151446171898898
LJ  0.19382038091693651   -0.33471254473945872   0.16317311915531751
LJ  0.30923341432223694   -0.25438287194817888   0.16214163194158873
LJ  0.31517653564535919   0.097049355799861417   -0.44824790858527869
LJ  -0.25783503835043053   0.28340784984993039   -0.25907831513008839
LJ  0.10257972666663752   -0.49143431281988487   0.21685107660597733
LJ  0.29256651209318624   -0.47653998237976342   -0.19566211217760943
LJ  -0.053170619113759435   0.021457716572032492   -0.19149142497560276
LJ  -0.37746930821294133   -0.079399531195068415   0.41449633474142861
LJ  -0.024501400578167944   0.11528473127350616   -0.49163938127645562
LJ  0.43670554770814796   0.4229354645503472   0.29636695933873319
LJ  -0.1099712244561014   0.17673974996645311   -0.22929022606405108
LJ  0.38293155453156286   -0.20749645939912492   -0.40751322547251612
LJ  0.15316719053633024   -0.20704860729555785   -0.295467086451705
LJ  -0.18036993218189393   -0.30883145575861948   0.41727017607872313
LJ  0.2832264299278266   -0.41855549408370069   0.13345328694081543
LJ  -0.45451941899505827   0.23674693129816524   0.3586739790266873
LJ  0.46612707594110098   0.0039896354146422355   0.095145872762439548
LJ  0.24126576633676095   0.44150992367477393   0.44696046362538178
LJ  -0.47375781739037909   0.19866225447311009   -0.04378938739915704
LJ  -0.083379279342316495   -0.33466522231469642   -0.45868247643570287
LJ  0.17586298313698623   0.19258071800241686   0.3854712984462127
LJ  -0.39406648683215134   0.12298590678860138   -0.022669336550541035
LJ  -0.15979759901894536   0.1861970079232467   0.2864271475153442
LJ  0.3373267572922799   -0.26753486424314882   0.25369141568452586
LJ  -0.25666071315483396   0.47281563866014548   -0.41052014022707844
LJ  -0.053793591928095498   -0.02094529292952271   -0.25372270539154568
LJ  0.45372665222997938   0.10124277081022226   -0.043134987185348417
LJ  0.052091988497791959   0.35890691905979405   -0.26670162781541074
LJ  -0.095892376473153379   0.32522730505867081   0.16165908861806069
LJ  -0.24328696385294635   -0.48355629602440298   0.34324993849548108
LJ  -0.10772305496179478   -0.069417630953992296   0.015356137165393916
LJ  0.46253349661479226   -0.45220435769520301   0.45217810394034602
LJ  -0.18791214872169915   -0.47471375634090024   -0.35954371896799631
LJ  0.39811465553665704   -0.14691006741685078   -0.31300836065718296
LJ  0.33052825015311421   -0.23152267486756692   -0.33777020262511981
LJ  -0.11329188881845573   0.069408708134336167   0.0018162060237918553
LJ  0.27204589229910492   0.12152316737676942   -0.34202071289148434
LJ  -0.11633174112216306   -0.17554766316010501   -0.053890877529096583
LJ  -0.079488356428764256   -0.10531960627974733   0.13875366671893882
LJ  -0.33149475799229122   0.46329119332588958   -0.32480620978849412
LJ  0.21218828193707839   -0.27654518130518163   0.34650748677550391
LJ  -0.064202049763247421   0.095147334641261225   -0.26493532280462884
LJ  0.22741427224491259   0.31872411302070847   -0.2060971699486005
LJ  -0.46446242130004634   -0.24784638668471687   0.15841996832418467
LJ  -0.48094212632944022   -0.4348755639463211   -0.34240341948005348
LJ  -0.043922124691410554   -0.069659214876162209   -0.13770370900543269
LJ  0.14232809762551202   -0.29921910536676982   0.28532624231790754
LJ  -0.44933701494811895   -0.45026990755458329   0.047537233958128554
LJ  0.35927961668144925   -0.31959375357000297   -0.40927614491630576
LJ  -0.33878750315688527   0.042960604539157538   -0.058605060447370898
LJ  0.17572354422916003   0.088546711020237701   -0.34383156137510584
LJ  0.17967257290136057   -0.46531072223168607   0.49331687155806758
LJ  0.10645581186921849   0.17649679018899131   0.024320378913780524
LJ  -0.031599640740691208   -0.29529181041926866   0.11265255352527816
LJ  -0.16526879517322191   0.20368029237489624   -0.16936968936680821
LJ  -0.27163725027801627   0.3960517614745569   -0.43262673546203995
LJ  0.0040112804414749537   0.098760300834406817   0.1826537542457557
LJ  0.26928769511919887   -0.45743209233435944   0.30564457400950901
LJ  0.026544239172923364   -0.32091365869323141   0.22615163284226342
LJ  0.020989435660958889   0.14381513252254174   -0.33527415557266205
LJ  0.26107300335381034   -0.39035836950752106   -0.21632730343352463
LJ  -0.37908745918110059   0.32834561014482411   -0.43844160949220845
LJ  0.017118451922563262   0.43117294328324662   0.076908973748871526
LJ  0.17923654062392944   0.14472177018751645   0.31300913332068325
LJ  0.1141271002481901   0.30152499417544831   -0.046686055361514343
LJ  0.041599126443333176   0.3395757533957528   -0.34290334475207584
LJ  0.30686582338764795   0.29462962731227937   -0.17933067858884633
LJ  0.34796438055863382   -0.057213775571679282   0.3331807703906266
LJ  0.25742605177321948   -0.47755201819268317   0.46888520120526589
LJ  -0.13140436182747339   0.4341937845075669   0.12312700196622783
LJ  -0.25029325408051489   -0.28203898083610779   0.28433265656762874
LJ  -0.3808855458691624   0.20683786916285352   -0.48091429828664523
LJ  -0.34304171848958231   0.37899326309862669   -0.39275939990860054
LJ  0.1556497782357589   0.34621112556974865   0.07764344823637101
LJ  0.25186198171748692   0.4496119793640348   0.18219315216748719
LJ  0.38129711280130146   -0.088091321606088263   0.48012533114589695
LJ  0.27844742138202894   -0.082606811965669658   -0.2678299901105281
LJ  0.2407170615306628   -0.015487261058042117   -0.35527608870075211
LJ  -0.10002536912527715   -0.46565566104225337   0.30885183137127248
LJ  0.16019255063961182   -0.29149547010899968   -0.48090224761479955
LJ  -0.025158866223192286   0.084524713771217966   -0.3881806920382449
LJ  0.13983246325808779   0.25843366853608485   0.088349520783472635
LJ  -0.07518188926131654   0.061379956545670425   0.20935205887751199
LJ  0.16084174063877996   0.16139598737783348   -0.43401764714940094
LJ  0.43422110338393904   -0.11052704864434097   -0.41337770408330399
LJ  -0.14634254724875898   0.10385779677388537   0.43725320007380519
LJ  -0.420856650794661   -0.27905464979010958   -0.1356237924037301
LJ  0.016946022942551341   0.3203274211030358   -0.0012366461499691375
LJ  -0.20736933180805964   0.022554257335313039   -0.31460678698549477
LJ  0.15583050628326664   -0.35858941445775488   0.39350486512769639
LJ  0.49149600168483459   0.38056023243649328   -0.29478434751937727
LJ  -0.38272877566490876   0.25750517056533206   -0.31089363093215644
LJ  0.036123322346642353   0.24462110449502272   0.039484768523714207
LJ  0.4697134411881464   -0.30786003867718215   0.23709499837582365
LJ  -0.056896113960522077   -0.45773861047638581   0.23169820772184657
LJ  0.0085827023448037006   -0.24660894075798404   -0.050533940416752215
