108
#Comment!
LJ  -0.26807544706311626   -0.37793732196864471   0.12794809770449461
LJ  -0.26068608231692852   -0.27882690000443699   0.45422203062424366
LJ  0.49120759641517925   -0.31562807803883752   -0.15137522557836125
LJ  -0.099456168595520936   0.24317608371700247   0.48627748431956286
LJ  -0.28732465965980203   -0.40444922247178811   0.21652726463343927
LJ  -0.36793074543052473   0.21650395873003292   0.3322099529973338
LJ  0.20287540882286181   0.17095714362686509   -0.046702397108075271
LJ  0.35550281048777393   0.21322212148841141   -0.34382703004404958
LJ  -0.43091112258875475   -0.25650926941616126   -0.14151854953017182
LJ  0.14150530118618826   0.36511849410088359   -0.12530282780170837
LJ  0.047592658861675075   0.36651960309454817   0.47078299185206574
LJ  -0.47639038060414285   -0.21102956107951451   -0.37500544966540111
LJ  0.038689654566838941   -0.063995339645003271   0.21548869605014292
LJ  -0.3248961418932651   -0.12261853632350225   -0.24874509347980364
LJ  -0.38602759583027729   0.0082467622985734484   0.11873557062040568
LJ  -0.46747867735062293   0.35653403091729891   -0.47224608130248558
LJ  0.38405386348878856   0.082476687025913528   0.34907402033898666
LJ  0.17181003081058033   0.1620862420464714   0.25246342389290222
LJ  0.11468222682080195   0.43010776691962632   -0.49499859318215239
LJ  0.19483603556701234   0.35660754504464248   0.13728651068380768
LJ  0.022454387512226878   0.12264195075331397   0.050018167883210819
LJ  -0.45858867257044356   -0.075833365694023158   0.13762727598088301
LJ  -0.28329296381856478   -0.33073534556330331   -0.3566968072405064
LJ  0.073889944208821223   -0.34734317165517176   -0.053648371628844282
LJ  0.058190112777701773   0.087080966640518509   -0.36853344852341902
LJ  -0.012912821826450609   0.40820540462579158   -0.070426926374825657
LJ  -0.28328225563405379   -0.21640257518151509   -0.037726111300501054
LJ  0.26069402877119463   0.46409623396624478   -0.47195419289640844
LJ  -0.16919366918679479   0.26735050494181861   0.25771756951392422
LJ  0.099580936979158471   0.16972305887212805   -0.23098018335903522
LJ  -0.25071808009922014   -0.31138848525563073   0.0095834954345245561
LJ  -0.13145461501347377   -0.39157866458500462   0.2943662232205797
LJ  0.26374018999601262   -0.08831722792989119   -0.11653237075623582
LJ  0.16900475132553633   -0.077934642797037337   -0.061598276447035812
LJ  -0.35534165448805055   0.11711100048057853   -0.44223011428555731
LJ  0.22848040864773334   0.48807581599330718   0.20925740589458469
LJ  -0.18188104553340234   -0.2122716783644667   -0.45095565902864371
LJ  0.46055753391170046   -0.43061065518622799   0.20247698584813684
LJ  -0.48942349256765605   0.007574074975938319   0.14507687908113429
LJ  -0.42725184733455251   -0.15008670439649624   -0.47778362869753305
LJ  -0.43887507996919856   0.22650550202248015   -0.081283657832178127
LJ  0.12103612780122246   0.48477354165858733   -0.0038354381532670779
LJ  -0.20857994636416813   -0.19352714704954738   -0.36493859320105665
LJ  0.32840177594922015   -0.18676224910779637   -0.46041444340516208
LJ  -0.09654316597288308   -0.4886517253650407   0.099790823993148745
LJ  0.093251463852641311   0.25012384993465669   0.21184346758973696
LJ  0.38373430148772714   -0.035307038313079582   0.21012097158837131
LJ  0.23884998220776557   -0.36410408886789031   0.19446297106707916
LJ  0.091843102500740806   -0.13293815684155119   0.065230727687799375
LJ  -0.056664749803368726   -0.26323292555403643   -0.076732946351265874
LJ  -0.15431328199304906   -0.065120092094993212   0.39932675189895223
LJ  0.034998232179945278   -0.35158354435472411   0.3666346957451892
LJ  0.31708110150883406   0.46868817757177311   -0.20802734670265399
LJ  0.41334078781073352   0.38414386644072979   -0.28274702923954453
LJ  -0.059369425730010847   0.021791474544126506   -0.39262842533589315
LJ  -0.15164971158213575   0.20238114696607584   -0.41840002835173978
LJ  0.43182685368416768   -0.24218701669652296   -0.1555394780106166
LJ  -0.12612526082148456   0.10837269599531908   -0.088344207509912884
LJ  0.30306568538905043   -0.044800369646335485   -0.48521130631815779
LJ  -0.18761716839262271   0.012794009750453644   -0.22437973824860058
LJ  -0.44037618851336036   -0.16694559453276397   0.33797967369007559
LJ  0.20132488273347754   -0.21745984757626494   0.35747987293042649
LJ  -0.037242202161895867   0.090932179960380874   0.26164341027625854
LJ  0.44606114457250684   -0.05183432628689405   -0.062867718341658496
LJ  0.35948732112726961   0.057621121827070271   0.41676034410666862
LJ  -0.017352708077052748   0.20730704028578373   0.17226513811358785
LJ  -0.16338143988710851   -0.29378793784297302   0.44987359684555761
LJ  0.099733021734899716   0.30099443242834006   -0.29844367179314213
LJ  -0.031148046425471483   0.018315134051577212   -0.077514487286381203
LJ  -0.49682776999486389   0.39608482832907355   0.028550881004909878
LJ  0.099662619921247197   -0.29505925275741635   -0.1767423963562732
LJ  0.440509941930183   0.1218905493899968   0.24943455048343582
LJ  -0.063205152748990481   -0.026057816206027738   -0.28688352207244211
LJ  0.36208571656255423   0.35871297980784445   -0.41352848516830271
LJ  -0.18859358599440254   -0.42859548509804002   -0.30184274097010361
LJ  0.38775372288748411   0.30792892370956365   -0.22009769335989804
LJ  0.23789718191880602   -0.27086575122278211   -0.46790683096977631
LJ  0.39325477541259285   -0.45430623776819368   -0.15186873260934919
LJ  0.33452771746593635   0.23105754962110822   -0.070149747339407639
LJ  -0.27613357912558134   0.41760304375544982   -0.36980006623126782
LJ  0.46978567761628115   -0.29560968107006785   -0.48627296403800291
LJ  -0.3763697112540389   0.14272471642233206   0.18149596651800978
LJ  -0.28496898771900625   -0.24328461597063689   -0.16658082053502932
LJ  0.34636995204799276   -0.07451540739915026   0.28019972402450632
LJ  -0.33365722924802443   -0.037480109222184581   0.14863341365458996
LJ  0.4996248987339737   0.36996307602942513   -0.38931527606521199
LJ  0.10691692704820738   -0.41463815791932829   -0.42619524982007373
LJ  0.33228137182985168   0.13058126300406575   0.019562610799227723
LJ  0.10224922904796677   0.30562805177426533   0.41563176910163918
LJ  -0.28921814946007823   -0.04143149705358639   -0.15361747109783644
LJ  -0.28102594928831143   -0.062196227526983464   0.4510890677057649
LJ  -0.210185603432474   0.48924533002163212   0.45027773458793308
LJ  -0.072000539162335786   0.12643410677136421   0.088215848943211203
LJ  -0.17574473021339063   0.1893188886712526   -0.034169950377639799
LJ  -0.1090327885530383   -0.27033203606951323   -0.49007393083681566
LJ  0.18494622947875192   0.31042375168705127   0.22161201922608187
LJ  -0.3502551767819353   -0.28954437237175679   0.33256150654572253
LJ  0.48687231819432841   -0.088900003700187732   -0.3655247227244256
LJ  -0.18419802107073607   0.43834223085676549   0.25797723377558779
LJ  0.1795563989954192   -0.47854049347098149   0.41949145626586837
LJ  0.30219431739933966   0.45177566523100038   0.081913968785115462
LJ  0.1932950135048811   -0.23648273174011836   0.2707879650895888
LJ  -0.067803425921876825   0.34076234013603096   0.43046668909082214
LJ  0.30151835930617271   0.46905921294627856   0.30219691562872047
LJ  0.41402676587890469   -0.32477794813872657   0.33670267253858288
LJ  0.30754472363243524   0.29378501055623968   -0.25367981351620555
LJ  0.094984982993657929   -0.10810986140066696   -0.28980802462532507
LJ  0.11973440742032596   0.37298534947947209   -0.2432001926355904
