108
#Comment!
LJ  -0.26812094675495268   -0.37808254435320632   0.12806509690072876
LJ  -0.26066223344375961   -0.2787655881676967   0.45416661465237462
LJ  0.49128877835139639   -0.31577390574637226   -0.15141140392592906
LJ  -0.099460452075939884   0.24328057453831478   0.4862048354982127
LJ  -0.28749301586690323   -0.40425194442502271   0.21648308802773714
LJ  -0.36806637364351258   0.21643466087219712   0.33234344054087261
LJ  0.20278971564162188   0.17093989984850597   -0.046676498769203663
LJ  0.35560066772316878   0.21322669330550253   -0.34379799064839756
LJ  -0.43093084579104973   -0.2564906464533282   -0.14142941069606962
LJ  0.14152780536996765   0.36521236233563836   -0.12534916881216471
LJ  0.047748913164606638   0.36651235082713229   0.47093945970919127
LJ  -0.47645521400034846   -0.21103643489169338   -0.37531934891793622
LJ  0.038618433671753008   -0.063810608796084745   0.21542220119815941
LJ  -0.32484429274248655   -0.12237730794118357   -0.24874110601784646
LJ  -0.38592270199948864   0.0084333179021334349   0.11859997110466911
LJ  -0.46752386705784971   0.35657329656126069   -0.47224417020270509
LJ  0.38422553508499024   0.082471483281283522   0.34932410103029471
LJ  0.17183088560894047   0.16215866129749709   0.25251822368900279
LJ  0.1147424925709849   0.43000606384165463   -0.49486087619280633
LJ  0.19495077055480775   0.35646600464344769   0.13734178698487262
LJ  0.022459314373276862   0.1226718887815252   0.050037357095939573
LJ  -0.45840780486177446   -0.075973978899051664   0.13757175546291114
LJ  -0.28328594884136704   -0.33061199442932049   -0.3565129570930311
LJ  0.073901404034290769   -0.34742945796993607   -0.053590620295147988
LJ  0.05841502066219792   0.087082290706461035   -0.36840414164603352
LJ  -0.012810162278533628   0.40814113968775723   -0.070407049650519707
LJ  -0.28327417915495856   -0.21645918022125266   -0.037550766437381006
LJ  0.26073008992438818   0.4640372569316048   -0.47212634641533135
LJ  -0.16919230136314178   0.26737042165215885   0.25764567054258974
LJ  0.09950455583388565   0.16963473607656662   -0.23088246937846371
LJ  -0.25077695502432334   -0.31133226156063931   0.0095706577783448987
LJ  -0.13148631362335406   -0.39159635992205422   0.29438892824714541
LJ  0.26377915621996756   -0.08829838726908   -0.11666069681877778
LJ  0.16914200975412   -0.07796333572565553   -0.061521732126769944
LJ  -0.35525771719041815   0.11728343944773581   -0.44215130380456025
LJ  0.22844213823032269   0.48790093362038356   0.20922181442887522
LJ  -0.18198289593951861   -0.21221181974469805   -0.45106823250272193
LJ  0.46044369883268471   -0.43068634546566581   0.20252584226938511
LJ  -0.48942051319114932   0.0074238542403999054   0.1452168780594123
LJ  -0.42731739602150365   -0.15000340549098426   -0.47783434372314793
LJ  -0.43896222483459452   0.22660803276859773   -0.081170318703576064
LJ  0.12061516067589265   0.48475634462217138   -0.0039887410749426012
LJ  -0.20868664402276407   -0.19358598108372882   -0.36491129784331455
LJ  0.32839684105898626   -0.18652114256619573   -0.46038877469862333
LJ  -0.096534860562142319   -0.4887434541093546   0.099623309148282088
LJ  0.093304908910839507   0.25006073999969797   0.21178673090559669
LJ  0.38386535835412638   -0.035561987379241662   0.21006817201304004
LJ  0.23872824782341201   -0.36399213977210132   0.19450082579096226
LJ  0.091712218610499108   -0.13286482863627019   0.064981535104955926
LJ  -0.056564874671433639   -0.26298460621964753   -0.076725457720807258
LJ  -0.15429070431062597   -0.06516848681838433   0.39941369625210277
LJ  0.03518423013035929   -0.35172871359617408   0.36655883649659632
LJ  0.31712695083605869   0.46871587297738138   -0.20805058745881663
LJ  0.41340875217076367   0.38393009203402378   -0.28276581278651242
LJ  -0.05957496843655162   0.021749508124847026   -0.39249810700039811
LJ  -0.15149857201066155   0.20237394592371391   -0.41847959491030451
LJ  0.43188127372244517   -0.24205397505156456   -0.15544274509703143
LJ  -0.12615163153742906   0.10827033597973433   -0.08847041423025806
LJ  0.30309895902714107   -0.04488983742838229   -0.48544998886414326
LJ  -0.18772414408973484   0.012887987293031712   -0.2243033900936354
LJ  -0.44025063713047985   -0.16700766753813334   0.33794566342676918
LJ  0.20151394297478095   -0.21748204218670661   0.35752500144785054
LJ  -0.037227103820274374   0.090857311517515818   0.26149781170474101
LJ  0.44608048695898439   -0.051831004052923943   -0.062985838209349623
LJ  0.35936463666313312   0.057677566717599389   0.41660971399139496
LJ  -0.017322490141136553   0.20731796487211707   0.17244207210716964
LJ  -0.16350559808403634   -0.29344865081500821   0.44982256888388028
LJ  0.099655666692631373   0.30083103179655446   -0.29863053726933375
LJ  -0.031327411104526581   0.018181973358694179   -0.077678194600453707
LJ  -0.49672380112364467   0.39610735459122665   0.028410618356307205
LJ  0.099703774635253262   -0.29505530985734074   -0.17658146606859015
LJ  0.44039632883714958   0.12194684030079722   0.24938236344978912
LJ  -0.063176000947022387   -0.026029090086730173   -0.28697796203427833
LJ  0.36215972560912729   0.35894466481440612   -0.41340372757888638
LJ  -0.18839709379388528   -0.42878096673353427   -0.30197347715001505
LJ  0.38777598323822149   0.30791507801068779   -0.22002200403656447
LJ  0.23782453562702119   -0.27094942152154355   -0.46802826468767361
LJ  0.39340015348808161   -0.45406304554615839   -0.152017877179834
LJ  0.33456321986430076   0.23085558164911621   -0.070108452284549858
LJ  -0.27603871181324469   0.41747104221356873   -0.36968642198680834
LJ  0.46997965639041966   -0.29553395391120107   -0.48626063269346198
LJ  -0.37643616581478895   0.14274760908645237   0.18151608535450231
LJ  -0.28498593803462446   -0.24334355850379277   -0.16654580019789983
LJ  0.34644994387001221   -0.074546665186726646   0.2801995591514142
LJ  -0.33372297598347772   -0.037615515701870494   0.14884014552452643
LJ  0.49960199136851779   0.37001087312700603   -0.389329741306912
LJ  0.10677779731737319   -0.4146457455045322   -0.4262164100731079
LJ  0.33220493667575834   0.13057168821776338   0.019450051611042588
LJ  0.10200489591736278   0.30560807098554343   0.41552615461846587
LJ  -0.28937169766424631   -0.041252207791849363   -0.15371606032323409
LJ  -0.28103804212095651   -0.062090574180187583   0.45108116664051789
LJ  -0.21010668113157296   0.48930646904508573   0.45038763474349658
LJ  -0.071851088272439675   0.12635640423691002   0.088098293187019866
LJ  -0.17569275082437488   0.18929005869145796   -0.034008728026609689
LJ  -0.10891381908770363   -0.27051223226564625   -0.49004865869658354
LJ  0.18488088608583664   0.31026985625016618   0.22142698386956752
LJ  -0.35024287999057574   -0.28955182449140626   0.33259507874002031
LJ  0.48692119982662208   -0.088849481891600565   -0.36529856860834553
LJ  -0.18445161280590833   0.43844875030879643   0.25800751966330671
LJ  0.17951561010044928   -0.47855477965820975   0.41945272954018814
LJ  0.30223250759628134   0.45165926445799159   0.0818508554071469
LJ  0.19336299620421823   -0.23636821435182195   0.27107980320874814
LJ  -0.067804684911070182   0.34082716102490646   0.43066184183310063
LJ  0.30132753274154894   0.46920365498228661   0.30212232425936825
LJ  0.41408294319464772   -0.32493143726762569   0.33689911323910871
LJ  0.30746519073456924   0.29373601166931401   -0.25371050189195316
LJ  0.094922682850063431   -0.10796433029856607   -0.28980521778179386
LJ  0.1196344274087683   0.37290190753283686   -0.24313157543257702
