108
#Comment!
LJ  0.49933064466911181   -0.49244223662475495   -0.49637784179452793
LJ  -0.32137251184327881   -0.34519682005231134   0.49544687686743138
LJ  -0.48368980604895706   -0.33295429232148138   -0.33694982216390507
LJ  -0.31736636532974327   -0.49639486158790069   -0.33901861758032809
LJ  -0.14440438156884405   0.49571954254317457   0.47749831201678078
LJ  -0.019411624801049014   -0.33169725530757782   -0.48562497458611498
LJ  -0.16443538308027511   -0.33113871116363663   -0.30453078259684518
LJ  0.00014390443571291663   0.48662221275512885   -0.32763892861536198
LJ  0.16051391388104494   0.49142841708827811   -0.49262612106315762
LJ  0.30871098263005764   -0.32242124578767167   0.4897474978993962
LJ  0.15527343813064456   -0.34847706071670576   -0.33248002563106688
LJ  0.32318569943566344   -0.4980455202617321   -0.35368878889300981
LJ  -0.49370913268127586   -0.16474804711192162   -0.49478393794605469
LJ  -0.32128280108295343   -0.0039251180041269271   -0.49830501908239383
LJ  0.49454382206945652   0.0078353767492660795   -0.33064345184544502
LJ  -0.33742646692086464   -0.15926815992984278   -0.33339580056166468
LJ  -0.17871956784243212   -0.18499080750098196   -0.48502023335298289
LJ  -0.013198653566953858   0.0064294780131329476   -0.48961284807548688
LJ  -0.18135430734427524   -0.0036427119818525622   -0.31798038011604463
LJ  -0.0023850769493901939   -0.17628077770396217   -0.34007376261953209
LJ  0.15305984424283112   -0.16168100045087239   0.48840209769877702
LJ  0.3233364965969312   -0.0058540603041176897   0.49866870465005436
LJ  0.17073834554587006   -0.010958436063757258   -0.35387273249284018
LJ  0.33074653869153831   -0.18749918120246326   -0.357161615817643
LJ  -0.4917054892717127   0.18111063251667164   0.49488840183076915
LJ  -0.32753846594404151   0.35522155559846136   -0.49971717256303699
LJ  -0.4928071528961418   0.32350508467306793   -0.33809325418838126
LJ  -0.32774320192323542   0.16789768846360373   -0.3338130561445114
LJ  -0.1742738794355996   0.17664951497081344   0.49629871527735914
LJ  -0.004122136008502416   0.31568836495430402   -0.47726349968733273
LJ  -0.17401013899280696   0.32392272287825896   -0.3293951356352498
LJ  -0.021471190878834624   0.14995601821051863   -0.32304422110296421
LJ  0.16375028044212175   0.17207232237909151   0.48642354940236959
LJ  0.32006931901360797   0.31348842791158271   -0.49754644060757247
LJ  0.16063099112600618   0.29760180534749159   -0.32751257355558239
LJ  0.33028013232405445   0.13512614351873975   -0.32255496524503813
LJ  -0.49553408599977083   -0.4983810912760897   -0.19930495233299333
LJ  -0.33267965975344976   -0.34232434015538382   -0.16082967428858874
LJ  -0.48455362227409127   -0.3312753734132548   0.010256323796636262
LJ  -0.32220196768073311   0.49608711973350966   0.0018084702869714231
LJ  -0.15995883459946211   0.48619897456862704   -0.18482235532015964
LJ  0.014297593850954086   -0.3297318839057567   -0.16225328942210221
LJ  -0.16253327350978219   -0.33671524353115928   -0.015571591804571832
LJ  0.017059657933999803   -0.49796154246564628   -0.00040952165653030466
LJ  0.17796357836847634   0.49443302779188592   -0.1715813591759178
LJ  0.32951637660357103   -0.34531629195620073   -0.18629070213678647
LJ  0.176679842408099   -0.34824796177778605   -0.014284960682834162
LJ  0.35949493071506411   -0.49197189616108244   0.0072275374674562144
LJ  -0.47838519136568386   -0.17096071514020522   -0.14692537851636667
LJ  -0.34817955432406894   0.0038082240493251202   -0.15912849716838601
LJ  -0.49203348433853927   -0.0013678267445267395   0.010613618016385169
LJ  -0.30478128826376322   -0.16536769983934121   -0.012071520130088912
LJ  -0.15358730730582554   -0.15687210701317919   -0.17615211641016984
LJ  0.014679791190327555   -0.019385930201663251   -0.16010020979017162
LJ  -0.16372070068640268   0.01117971289383745   0.0039818992203648259
LJ  0.0071457886335848497   -0.16488855825893473   -0.0069925057271918774
LJ  0.18769985397136665   -0.18159075939678107   -0.18711264315645668
LJ  0.34278924994532856   -0.019299236609649335   -0.14928961599510493
LJ  0.14692370922675313   0.020607320020804964   0.010418147590991231
LJ  0.34097331519831586   -0.17204163514532983   0.0083048601727023739
LJ  0.49730638088322349   0.17876447904307619   -0.15303143397774091
LJ  -0.34003165312957878   0.35838779362718293   -0.16117568700700724
LJ  0.49747768235608342   0.34523436842685074   0.0054575133471960312
LJ  -0.31885406501926772   0.17618458678523435   -0.0052151875067573336
LJ  -0.17062150473420945   0.16478468000026911   -0.16367549783356206
LJ  0.0017918380018246819   0.33435747055576709   -0.15686738909318274
LJ  -0.1639368826656282   0.33839756397485815   -0.0081774541326270628
LJ  -0.01659553711735608   0.19182657465660796   0.011649066917082698
LJ  0.18226646948316291   0.15404358426485198   -0.14905263643431763
LJ  0.33669917100701691   0.34262791739601822   -0.19773209088676785
LJ  0.1764583851309364   0.33490466054466739   -0.00677489349073351
LJ  0.33321070310927081   0.16621970447173931   -0.0072075304441989564
LJ  0.49578938722944926   -0.49592084590048507   0.18666409640731868
LJ  -0.32436379433819412   -0.33869990822978024   0.15609687154859134
LJ  -0.48709048412153971   -0.33383000899573317   0.35878211617386185
LJ  -0.33553028178103528   0.49954706655051329   0.31768447555054513
LJ  -0.15017492907918711   -0.49271960469165998   0.14389552175610573
LJ  -0.001512306186857857   -0.33707034193160679   0.14922580119072934
LJ  -0.18573846422398912   -0.31822345963607102   0.33205877336477546
LJ  0.019494355622536833   -0.49810376131124467   0.3193332806084459
LJ  0.16605092675894637   -0.49263213147399282   0.15271241949692269
LJ  0.35448181122059796   -0.33529021437574946   0.19638249557073129
LJ  0.15138580683059544   -0.33146744238770526   0.33772340970876125
LJ  0.33142089490387   0.49848823116410101   0.34038422830608794
LJ  -0.48987814942798624   -0.15910617374604052   0.16060807134624003
LJ  -0.33172179322083595   0.00091066701783438012   0.17421101068996253
LJ  0.48269304845111022   -0.0029290691976066223   0.35170563325816917
LJ  -0.33348354116580919   -0.16611051628345577   0.31283562953499061
LJ  -0.17332764990284619   -0.17561874436333452   0.14459196666010735
LJ  -0.011587819301839941   0.013589520013485866   0.18693198746484266
LJ  -0.17379002167767993   -0.00029649361945873425   0.34877518724472378
LJ  -0.031022821051551026   -0.17082177753084701   0.33131247998818603
LJ  0.1376893945681251   -0.15491649176280081   0.17056394657582397
LJ  0.33178494987327956   0.006195953375571584   0.16156122614315682
LJ  0.14111291506335999   0.0075985625286054872   0.3312568180591457
LJ  0.3109284307699382   -0.16741391838884195   0.33496292457641325
LJ  0.49705880643138295   0.17089886686164266   0.16444751704600805
LJ  -0.34176705396037094   0.33308965619692243   0.16709423475234922
LJ  -0.49763692384871377   0.34156223449464657   0.34672346590402087
LJ  -0.32696261462316062   0.17508890520390322   0.32819404051696344
LJ  -0.15696437765108365   0.1670217186425007   0.17615631905721438
LJ  0.007841063070249607   0.34424652442216003   0.17349812412504187
LJ  -0.17214918989611508   0.34172759340947756   0.31664335860914855
LJ  -0.018105124755037793   0.17026963251106098   0.3498395643923583
LJ  0.15736747039472321   0.17655967797982391   0.17857745410872447
LJ  0.32356997122358727   0.34423380251806057   0.1623650195658389
LJ  0.1700935622679445   0.35341712707185996   0.33881378603912327
LJ  0.32991221874552606   0.15971850220732173   0.32105186735252256
