108
#Comment!
LJ  0.49925343582448128   -0.49242314804754883   -0.49649825658176772
LJ  -0.32123441605212588   -0.34511198815105143   0.49541741736518535
LJ  -0.48361058721197292   -0.33284908788654288   -0.33711607771801094
LJ  -0.3172770549865081   -0.49615689463128043   -0.33871283293503379
LJ  -0.14454723100204708   0.49558751264986445   0.47765815395078648
LJ  -0.019307225403028809   -0.33147551750217691   -0.48563757854298123
LJ  -0.16447509174152403   -0.33117113889186189   -0.30465244071073888
LJ  0.00047749533707765684   0.48694220319208725   -0.32762131550761731
LJ  0.16077015872228584   0.49152219345147341   -0.4926774389550807
LJ  0.30909002918245665   -0.32233222702964048   0.48976783978151978
LJ  0.15495553882902466   -0.34867682132775968   -0.33249643271321644
LJ  0.32350409439929073   -0.49783956130213747   -0.35358478415824623
LJ  -0.49384426751489952   -0.16489950427201169   -0.4946059846816615
LJ  -0.32153417262350814   -0.0038741073121647462   -0.49866976228982379
LJ  0.49440934868874498   0.007711137316532269   -0.3303752956283294
LJ  -0.33730272966010427   -0.15925990673011312   -0.3336769249613486
LJ  -0.17864111177559355   -0.18456240107504165   -0.48505445960328553
LJ  -0.013222646661222675   0.0066417968344411188   -0.48954167075775168
LJ  -0.18121903486760199   -0.0034232500826854198   -0.31809553647092159
LJ  -0.0027268665276233826   -0.17643480966003092   -0.33974858570292626
LJ  0.15293360104059928   -0.16180374819829615   0.48815393530700246
LJ  0.32349315214845176   -0.0054684966453116789   0.49822860401528229
LJ  0.17111641022699467   -0.010858547662651572   -0.3535712125183208
LJ  0.33058965218449654   -0.18734174680100038   -0.35706582332562808
LJ  -0.49166288103443984   0.18074285892452333   0.49481369671701492
LJ  -0.32777311406916515   0.35511234493347354   -0.4997084204319886
LJ  -0.49273168287536057   0.32382699810312354   -0.33807392844812872
LJ  -0.32775890243646055   0.16750744927319317   -0.33383618614163107
LJ  -0.17403389555471419   0.17672649049896394   0.49595561294105672
LJ  -0.0041533264254225268   0.31571985397956359   -0.47750189517052866
LJ  -0.17387993083056358   0.32402989318662756   -0.32962399905722828
LJ  -0.021717987165237644   0.15004356107830841   -0.32297945462953503
LJ  0.16377240535898413   0.17216459223639446   0.48647804286360524
LJ  0.32025121822962982   0.31358395310201043   -0.4974233669450806
LJ  0.1603383094143517   0.29779772634542589   -0.32724769966387068
LJ  0.33038810515352396   0.13533737435590412   -0.32281330967812139
LJ  -0.49559149977207112   -0.49835368023093612   -0.19934407691047995
LJ  -0.33271549433604247   -0.34203886968466207   -0.16079984032164407
LJ  -0.48454862363029588   -0.33149946924005058   0.010166011800547938
LJ  -0.32228231761242532   0.49618743804511622   0.0018056981826859938
LJ  -0.16024938484129853   0.48619735321432767   -0.18466392325156358
LJ  0.014417214940577664   -0.32978726156093841   -0.1621978891308567
LJ  -0.16264282369462715   -0.33721508901348551   -0.015377595194976687
LJ  0.016901246379727189   -0.49811329371217866   -0.00018915568878503949
LJ  0.17791090259874218   0.49444781544630934   -0.1714056682818362
LJ  0.32941800618410216   -0.34529424703075734   -0.18624204985559703
LJ  0.17672348456886558   -0.34819988677372754   -0.014147077339249088
LJ  0.359560661340252   -0.49229657845239749   0.0070427700413471031
LJ  -0.47815930625047748   -0.1711259767302882   -0.14653887710031244
LJ  -0.34842562120250897   0.0033781987418811947   -0.15894338556367099
LJ  -0.4919812259219058   -0.001099522917320041   0.010520635632639507
LJ  -0.30481531693435171   -0.16545797395807713   -0.01183336764625631
LJ  -0.15343444964201366   -0.15670457223637263   -0.17618637476030552
LJ  0.01479348121112212   -0.019438239429946821   -0.16015414984409015
LJ  -0.16368598941965423   0.010722404937075772   0.0039614122460782004
LJ  0.0072972833079423278   -0.16470891555898731   -0.0070654793579512645
LJ  0.18774894385455979   -0.18200756623627201   -0.18687789874707578
LJ  0.34324762561161581   -0.019194994910240112   -0.1492104119183961
LJ  0.14678680195219487   0.020758570085273952   0.010340868682149659
LJ  0.34112135750872791   -0.17183786168144688   0.0084743279123806192
LJ  0.4969593128843971   0.17856248963125537   -0.1531276044783827
LJ  -0.34030574809846792   0.35858650428682665   -0.16120618776841109
LJ  0.49746590435558397   0.34547419850302602   0.0054788755723796934
LJ  -0.31882409390852551   0.17609021659791926   -0.0052917054563542355
LJ  -0.17081598058059261   0.16492326100151847   -0.16381150591409219
LJ  0.0017807165184991554   0.33432757730640872   -0.15668547622094831
LJ  -0.1638265882814875   0.33854345093439553   -0.0080356775784760099
LJ  -0.016726674877225806   0.19171876993425757   0.011341952942198618
LJ  0.18212286731617308   0.15419801084713031   -0.14916283847276071
LJ  0.33676654807869344   0.34279572225416444   -0.19762609508593379
LJ  0.17628384316631779   0.33461142986592396   -0.006892519241635124
LJ  0.33341220411494921   0.16600065776672324   -0.0072676014894592425
LJ  0.49547902067752153   -0.49600124451055172   0.18687897511065621
LJ  -0.32447164390110494   -0.33881298610181149   0.15628401121730884
LJ  -0.48715320715762683   -0.33390794360485399   0.35840373246264395
LJ  -0.33549794340685957   0.49924641400531372   0.31751632888465231
LJ  -0.15034350637765787   -0.49276438391610394   0.14373266371174429
LJ  -0.0016648260913056092   -0.3371325979966579   0.1492815942342173
LJ  -0.18563994796720643   -0.31823520948502959   0.33189107592739497
LJ  0.019763936279380528   -0.49772391528753279   0.31951350088878472
LJ  0.16607746129265219   -0.49269975017901135   0.1528189065422571
LJ  0.35477386104760156   -0.33524736389802695   0.19645374692174203
LJ  0.1514278418435277   -0.33183644842381432   0.33787446381339742
LJ  0.33155267768297481   0.49846422155405784   0.34023479984929206
LJ  -0.48972131493338578   -0.15937598697148431   0.16073797053535169
LJ  -0.3317167212839513   0.00096893236725867447   0.1741821071630506
LJ  0.4827458667805819   -0.0026709832648527032   0.35164525258273155
LJ  -0.33369437579900096   -0.16602042226104929   0.31299475719467135
LJ  -0.17328922752306797   -0.17591535983527073   0.14456579574254699
LJ  -0.011740079806672766   0.013370212000510265   0.18709329033472757
LJ  -0.17409536169605672   -0.00076795367418303723   0.34867239854795923
LJ  -0.030912178949386391   -0.17094261031215233   0.33143971574192621
LJ  0.13744524456816817   -0.15522782829757073   0.17055644524736421
LJ  0.33182582530986626   0.0059845266072110137   0.16102243969123695
LJ  0.14106769329466814   0.0077858630339934995   0.33110694220792053
LJ  0.31099534320649297   -0.16727748671925682   0.33492206571465832
LJ  0.49728923290123889   0.17086798665509487   0.16425201752162519
LJ  -0.34193448884297178   0.33313160306684558   0.16716001144180834
LJ  -0.49777219898961439   0.34150464637907285   0.34651654621944672
LJ  -0.32705977302825928   0.17545255344859934   0.32790431894627176
LJ  -0.15714996699637163   0.16737153376756314   0.17627671813087462
LJ  0.0079006387161063441   0.34442518437315656   0.17400744925792347
LJ  -0.17202497475423714   0.34177076149655011   0.31626733985029276
LJ  -0.018283051508499557   0.17021626779350141   0.35019270622788073
LJ  0.15732253811981356   0.17639166600449641   0.17878544556556336
LJ  0.32380939422628574   0.34422908328256313   0.16223478486499512
LJ  0.17041933813543872   0.35333266377212058   0.33860412781437926
LJ  0.32989280700518087   0.15986126148735114   0.32126482155239589
