108
#Comment!
LJ  0.4247219302116868   0.038507945213433405   -0.028523315666719631
LJ  -0.20418198789660208   -0.43431746904884855   0.46096108570754352
LJ  0.498493634310198   -0.40431063958021096   0.4145902897473937
LJ  0.35549587107983721   -0.189621691752896   -0.28511230873072851
LJ  0.42860997961915609   0.16778668086875534   0.15538609626375685
LJ  0.23930068244835442   -0.27711286255955553   0.45495336005410775
LJ  -0.31341059667017407   -0.28994119756069042   0.076490078601505265
LJ  -0.46975670087135374   -0.42994307446832947   -0.0020196329861696203
LJ  -0.18154716790358108   -0.44700093723570017   -0.20540965092572369
LJ  0.11990382836529202   0.45236377581147974   0.26847261944523737
LJ  -0.46812204288913534   -0.086802480907522184   0.36397661301702977
LJ  0.30673379596040928   -0.066797117219094176   0.31834843554497844
LJ  0.015978996538900642   0.2411626659282558   0.23659021804345853
LJ  -0.13766358858608019   0.21220887871399968   0.18463047800597784
LJ  -0.4183662233361547   0.25483988664622481   -0.060102585289154721
LJ  -0.37147338200382968   0.33519543909132388   -0.012557005089845535
LJ  0.22263304325312028   -0.45267877228356007   0.034767020470128786
LJ  0.32531565393684392   0.23255242582228536   0.24573099018515615
LJ  -0.27062339219978143   0.44155587862124063   0.44069650010513711
LJ  -0.044492984243619013   0.096430808059750725   0.30458505319575541
LJ  0.35713277212569661   -0.29109638185817371   -0.21269043253114481
LJ  0.42991431925913964   -0.29911049781231597   -0.23955008218268894
LJ  -0.23519953304699281   0.25264012870486469   0.44096037263055454
LJ  -0.19912591800324483   -0.37519040337846654   -0.42830777443038681
LJ  0.025764612037803964   -0.31033936224071174   0.25513295695130844
LJ  -0.19342041357267503   0.38428875758121267   0.31674075640902671
LJ  -0.060944473216541291   -0.29489693217364571   -0.084708438748334294
LJ  0.33223847428715403   -0.10628786991365258   0.45902811490447715
LJ  -0.46999674918935436   0.34483669539453327   0.007055569970876684
LJ  0.11858624298559467   0.24336651303003712   -0.35179743938760882
LJ  -0.46782893909687118   -0.49592487090481202   -0.082182626791374017
LJ  0.49856721766833761   -0.36834449387346313   0.036635606066397715
LJ  0.47854138634656468   -0.089102476352476367   -0.14906673769310771
LJ  -0.13005798132756516   0.31242513421986695   0.20930299426993404
LJ  0.18988636332296158   -0.25155360042696118   0.085080196668152572
LJ  0.30449636242820916   0.094204889092753957   -0.0022806049609787019
LJ  0.32427171219404266   -0.12438619031683637   -0.23709660334725061
LJ  -0.19759595114807108   0.076167930201321857   -0.0025899886776847483
LJ  0.48116895897639439   0.37615021961875089   0.23897525816511381
LJ  -0.21779225207553699   0.36487576283989864   0.13587612498158613
LJ  -0.055456729408395175   0.23991415323710777   0.17633239866753936
LJ  -0.44727802408964407   -0.33986715667200007   -0.23256259541450952
LJ  -0.22566357988649716   -0.33078962321456529   -0.044114461052419424
LJ  -0.11981717440923802   0.32989284001802893   0.29316443845165513
LJ  0.26046180257767471   0.01598439883404711   0.3376016122325261
LJ  0.14096928663264011   -0.25921832717716259   0.40659415521272646
LJ  0.30322966542674279   -0.11203631930814471   0.030963493420045583
LJ  -0.074933741605250376   0.12635059517974762   0.20089818333805332
LJ  -0.29026119809212553   0.10141151439971813   0.28650881991255239
LJ  0.42510185652721266   -0.043739978593295661   0.088560207282929349
LJ  0.37743107948590338   0.078893055638400503   0.38491383786686889
LJ  0.016117977864251603   0.1524629511176325   0.23289586210189653
LJ  -0.038254410556484555   0.32048410469528199   -0.05090795263969821
LJ  0.31701620349188425   -0.0036464624816548259   0.047651491681977402
LJ  0.40431147369421044   -0.3689805855609572   -0.15044345025622521
LJ  -0.42133478984101957   0.1597663127235964   -0.46469517799351173
LJ  0.34481222662686384   -0.21172152016720638   -0.21591124110478011
LJ  -0.13028034594759014   -0.42051893772328242   -0.47226361186131005
LJ  -0.24706959133076248   0.47377257029879322   -0.26035605360262887
LJ  -0.14390441576286361   0.019021303160939879   -0.22303088654454611
LJ  -0.1953689140431499   0.17970298404945012   0.27633879413046819
LJ  -0.44212414330916278   -0.32128001291676156   0.1159853507398612
LJ  -0.12946512252549647   0.28339190515662782   0.48779959476299933
LJ  0.26806161687386054   -0.38132998745913926   -0.027377737261089496
LJ  0.11189617495311158   -0.46076840474614011   0.3524315938563049
LJ  -0.36080366452236734   -0.46693093870070068   -0.47628388586259285
LJ  0.20654150371872479   -0.2824664673677329   0.23340183060979144
LJ  -0.42845709582706398   0.21319807707321983   -0.28170076565441332
LJ  0.36616440836367736   0.08732300130103178   -0.1624723681751534
LJ  0.41775818515682772   -0.015321444360834706   -0.46151781098974637
LJ  0.015123748256948072   -0.35691565249943558   -0.35548084039828909
LJ  -0.14843216835524362   0.084682390273800062   0.4160027353036741
LJ  0.2738871857560124   -0.013336298043789958   -0.30186940903932191
LJ  0.23046692403604951   -0.35800224294061617   -0.24138017616884078
LJ  -0.076152425286721961   -0.1710258767244528   0.26709182879470633
LJ  0.263057378497288   0.046107088661137614   -0.24668922608450203
LJ  -0.26248426500242689   -0.021046451061282879   -0.42010681675926798
LJ  -0.13061119818812822   0.16183980536117756   0.39626133903802274
LJ  0.29060194108328063   0.068545055361266399   -0.15273294926423769
LJ  0.12494856819448896   0.05681925562143627   -0.22706224724644028
LJ  -0.453614849055203   -0.21063179436650439   0.46583699555481795
LJ  -0.01655615981923703   -0.45411724112892887   -0.17135960773456929
LJ  -0.26017343898754691   0.34287008377057393   0.20552596051292341
LJ  0.088743986528497923   -0.23557126615138804   0.2309749216361722
LJ  0.45624779504754553   -0.013453132642735207   0.46059637919902541
LJ  0.24535050473939446   0.47249733203552952   0.49565353744785434
LJ  0.015814773627274199   -0.28831282817580134   -0.11888176468188694
LJ  0.11529314774645155   -0.17755786171049817   -0.26922038766139139
LJ  0.28070463653951078   -0.17917296406724131   -0.19368627054941601
LJ  0.1790982314415781   -0.44576237397106888   -0.42471381604299274
LJ  -0.0057478433813385786   0.38762327544403025   -0.0080769720919512886
LJ  0.39609519160698281   0.39571959474763418   -0.20419102710886794
LJ  -0.43811036441243822   0.15269926143901888   -0.32819794535078134
LJ  -0.15482673321090631   -0.0096273927733971591   0.42248903087378753
LJ  0.25396714218623806   -0.36323387893099485   0.26640464202975106
LJ  0.47247228642887534   0.11421943008926469   -0.35430291339676462
LJ  -0.25253660641254133   0.0761199836345096   -0.22024283248908191
LJ  0.4664255174142955   -0.41457670589312096   0.16674867809577693
LJ  -0.13421336376164286   0.4799158244483549   -0.25408485259991725
LJ  -0.17823363266719594   0.28335423487350531   0.35904684296503797
LJ  -0.16908374344059937   -0.13281424844296769   0.27097048558461923
LJ  0.022708675194199203   -0.059458953057622853   -0.22974039028033708
LJ  0.43382680034476756   0.4370903428119236   0.28116847998484357
LJ  -0.49793852829498381   0.0858053628503819   -0.24799472385915738
LJ  -0.024077056600214704   -0.2169030386824605   -0.087549120446477793
LJ  -0.4500906842620705   0.034180383286916895   -0.20213281223466967
LJ  -0.20127946331083602   -0.092517316283466905   0.33863051504621322
LJ  -0.05488502480924095   -0.34420729509364079   0.051539954281146189
