108
#Comment!
LJ  0.28652052969101649   0.37647741711664151   -0.12423217783987099
LJ  -0.038210255680903443   0.21886214214947547   0.1143909985502322
LJ  0.48860621404332338   0.3654029259873236   0.24174518509807869
LJ  -0.11526125970389289   0.23041221221373537   -0.2103590603998472
LJ  -0.20068142806086073   -0.17500896055636081   -0.15759806557522468
LJ  -0.24657636358403953   -0.0060884339125660755   -0.35902048435505451
LJ  -0.25402552702357706   0.27400990063599362   0.22749575537436578
LJ  0.20288764291225939   -0.048624776006688838   -0.17468676356403712
LJ  -0.44212953710871838   -0.23326667021726097   0.14163048146786797
LJ  -0.046871249106655195   -0.36521848872212825   -0.074636714840148069
LJ  -0.13457663505907586   0.40613758385242982   0.12783951221768813
LJ  -0.091335261588892214   0.37816800257038574   0.49374576990407959
LJ  0.10622271395870025   0.27571621563861054   -0.40819284768485364
LJ  -0.33393893991669377   0.35182866058869577   0.48439513403311729
LJ  0.17515761849778039   -0.36439292175009297   0.2237344811843533
LJ  0.0093191412391033426   -0.18267862191206838   -0.49783938999410365
LJ  -0.16053495471714474   -0.30893217019315128   0.43437325731598936
LJ  0.012783566072153972   -0.058269573951911922   -0.12052693920893098
LJ  -0.29874794543136429   -0.094794048116090948   0.051392992877377405
LJ  -0.12056999751871775   -0.20505179283233732   0.039787629163323505
LJ  -0.42805017527628009   -0.37213826966514407   -0.2424691751654694
LJ  -0.4639465772610849   0.17137331962822114   0.35707973151214856
LJ  -0.4551961400580844   0.20599850861152907   -0.44929492850038039
LJ  -0.43765192793394708   0.034356999911186223   -0.32166018490485343
LJ  0.134475896192427   0.33495182836111798   0.047332858572721792
LJ  -0.38802792183350676   0.094152700001535597   -0.020624372447472186
LJ  0.20847650131874793   -0.21349624512020984   -0.29658512064924236
LJ  -0.32046869000606854   -0.19910320042721197   0.48279698315573982
LJ  -0.033094976520906587   -0.37565556186715138   0.15385399818196246
LJ  0.24490973690121903   -0.20477158143216845   0.48710106578287021
LJ  0.079343230794812786   0.26255107347414819   0.38830602649314788
LJ  0.092743024762866402   -0.022017736445444032   0.19484479377433503
LJ  -0.33856157608907428   0.21797562774062981   -0.18220717766890571
LJ  0.31195045435609114   -0.037306523790119492   0.20074232574671688
LJ  -0.062134404864097673   0.057227779630944935   0.27429170574390394
LJ  0.41605345367356078   -0.018581899511606072   -0.20478981007500049
LJ  -0.19919156875727353   0.28330765471614588   -0.024490408059888676
LJ  0.078557201684408218   0.16056484901663065   -0.064818062100671731
LJ  0.23598250181968217   -0.23789931864211183   -0.091793845780502856
LJ  0.29418848322897839   0.42407843022282932   -0.4416517360265842
LJ  -0.41540291290213255   0.24739071213947483   0.11436281169495897
LJ  -0.17729606338201132   -0.21208943760011711   -0.38645188735995623
LJ  0.35459474969136612   -0.39870384760235866   -0.072522144078733974
LJ  -0.20115264335983229   -0.49474273338293279   -0.067898026066782302
LJ  -0.47191532545272624   -0.48105761875305991   -0.41797377918011525
LJ  0.36706811564096486   -0.26265920533635151   0.27507799786594306
LJ  -0.02956427943779754   -0.086610589013330477   -0.31576241686628675
LJ  0.45769702133178053   -0.47881967917751733   0.39053380105371061
LJ  0.044834957750630754   0.43229781932735445   0.20936356785365867
LJ  -0.27900744342404488   0.42616639730074657   -0.28030872829972009
LJ  0.45855531494594803   -0.42308984143602624   0.19220880944464552
LJ  0.025987964478513648   -0.25757042048261058   -0.2192687109164346
LJ  -0.29965826853826016   -0.14598469749428855   0.28040693434035313
LJ  0.49859950712387996   -0.17371107525179685   0.41478700033174498
LJ  -0.18164475599291269   -0.36688423353709182   -0.24671592881704069
LJ  -0.26066077077387162   0.21946383944775275   -0.35966992311685286
LJ  -0.48811043638892343   -0.053239933925560583   0.22261804636896068
LJ  -0.37000914272686675   -0.1909249375780521   -0.31324448939847416
LJ  0.35280102594109292   0.3331677118461509   0.10151266366571597
LJ  -0.39585331022913745   -0.087041698959077207   -0.15065291523641741
LJ  0.19562032124675893   -0.0059279193000138447   0.027275565414517131
LJ  -0.14733163523867879   -0.063767157843586553   0.44553381562150868
LJ  -0.40538228646666102   -0.016899872741899576   0.45596853149920963
LJ  0.33613148442963425   0.17961831054216493   0.37162099580008168
LJ  -0.29215869652134469   0.072864745869948705   0.193913553856672
LJ  -0.26425564889015862   -0.35997429932890129   0.11926911374408918
LJ  0.16852885431162165   -0.41728945346154106   -0.15800482123921106
LJ  0.32705703729211366   -0.48746745527749735   -0.25664173932088213
LJ  0.12696739176033844   0.061314887377683452   0.37792273145549793
LJ  -0.24255877524250538   0.051861809757471782   -0.17366786225730901
LJ  -0.20130256790913209   0.43062655348896256   0.31787017175076243
LJ  0.10655720539319749   -0.22348796138529348   0.059005608261553232
LJ  -0.35538000441062795   -0.35958091677076776   0.34815424710340442
LJ  -0.10383894923929325   0.012118285092443308   0.024693301790093929
LJ  -0.38198704002988254   0.40345233264230762   -0.034941522668143279
LJ  0.44455175708872618   -0.025671941834467461   0.0034971195334975685
LJ  -0.29156346594509941   -0.40038482362169286   -0.43482649247533367
LJ  0.12614379332203407   -0.16657850940743718   0.33238708782447607
LJ  0.37851470798909598   -0.3259403345645554   -0.39495798093962009
LJ  -0.46319761388723296   -0.41948219416457161   8.3634786080069736e-05
LJ  0.32194354364874067   -0.033919078994336015   0.40932818228248097
LJ  0.031550654158240148   -0.37680780762988775   0.35392289521770154
LJ  0.14626359905319949   0.44272538626552915   -0.32592975255915885
LJ  0.076843937462008349   0.30268906461918993   -0.19745849362253781
LJ  0.24688802345411501   0.41521504724205494   0.2494013290390697
LJ  0.17645115439494957   -0.44159187320065751   0.056489894562466648
LJ  -0.055853082552054199   0.17587597073906988   -0.40543402394379591
LJ  0.4014850673973907   0.28375488719133629   -0.32367858694108831
LJ  0.071449871061555703   0.08874689727942156   -0.27134230507985035
LJ  0.42759811247346685   0.24307449995561833   -0.06667932069511763
LJ  -0.074070110533409533   -0.4372307196190261   -0.42821718729825542
LJ  0.097793506735773944   0.47348988649393692   0.47454787716574565
LJ  0.33642928130142435   0.096140697613402548   -0.42885088796785048
LJ  0.23622269824107189   0.19468349722486358   0.20514701838306254
LJ  -0.36339703078653346   0.48347506607897006   0.17720681777937328
LJ  -0.49016714419257501   0.43074336629121074   -0.21078769920436072
LJ  -0.077665942376776903   -0.1562728423905301   0.28470048864018643
LJ  0.18814041110197363   -0.38509492503746462   -0.38791926435592805
LJ  0.40470964712567042   0.12458590446255594   0.14843385079521071
LJ  0.4480524147617112   0.33412509462562268   0.43564765457857491
LJ  0.41794733577478266   -0.19756539830930431   -0.14539978634044493
LJ  0.3031327906236555   -0.22421921553152249   0.088355839397132097
LJ  -0.022577688358843107   0.42792638230517732   -0.054456083498115079
LJ  0.42174858662210429   -0.11046658343675797   -0.39430552459858642
LJ  0.27340466642139061   0.14957057254002845   -0.20515200719741269
LJ  0.14811509045103655   -0.024772888923910722   -0.4304163449657053
LJ  -0.064724356472472724   0.40354757254762735   -0.26586075169344142
LJ  -0.18099884932517582   0.19126002058780484   0.4183607093530663
