108
#Comment!
LJ  -0.099376283672626811   0.22376815779130885   0.3287172066716495
LJ  0.21795962388350429   -0.25586418900124935   0.20024681290733443
LJ  0.13431298997168353   0.18588739821207689   0.016097059828580826
LJ  -0.47498983563478092   -0.40380271640189047   0.48644477728084751
LJ  -0.19592512283040783   -0.26842471875211227   0.17742930708953153
LJ  0.018388844735847492   -0.1353452677144748   0.1635336744264865
LJ  -0.16935604585155331   0.41861778077488082   0.49237956176317349
LJ  0.41853381909625598   -0.40909275043503879   0.29442387032099104
LJ  0.12289844740172197   -0.34196661294147473   0.46832265335558942
LJ  -0.048499922338066055   -0.26155130081903266   -0.3989475412090755
LJ  0.090941462232817863   0.35494598194669591   0.27644090022746848
LJ  -0.38227025866153602   0.42226650921207981   -0.036436669972189903
LJ  -0.091943542233849457   -0.05711352064244727   -0.42692027377594155
LJ  0.00072929471377556449   -0.30260832370656049   0.23882373539166635
LJ  -0.25155525464246631   0.14774745426621849   0.21015927690261593
LJ  0.29561282459872096   0.44381371073087733   -0.25545614076206252
LJ  0.12999855081805559   -0.29338333504944841   -0.32863566401386757
LJ  0.21101010716761648   0.32936195179661171   -0.13358501814370535
LJ  0.37686401968132455   0.047173250891329441   0.21808333287275566
LJ  0.34041731180993712   -0.11402276967837006   0.34243410834797411
LJ  -0.0043258732869478275   0.35718856362624357   -0.23969533275594843
LJ  -0.42751486154295743   0.27279398886158923   0.26085206124966698
LJ  0.39218449341860045   -0.140667414717317   -0.065430494195924227
LJ  0.41270565518476371   -0.41364426175062757   -0.12609464430165018
LJ  0.042116861729036684   -0.46408003320690094   -0.13442216516594802
LJ  -0.087303216426247096   -0.18508285841331873   0.42088055602187746
LJ  0.1870440470826128   -0.085826173438734554   -0.24391038584758939
LJ  -0.26379426587964722   -0.010674091954357829   0.46207349376660478
LJ  0.3394161965037597   -0.3322934758248286   -0.3388122053028923
LJ  0.19744683046243128   -0.18282251555790871   0.011511786323681885
LJ  0.10063485605979389   0.49370950659191176   -0.3559422169366197
LJ  0.34591617812756459   0.072821324354918449   -0.4285115440273109
LJ  0.33425399765785169   0.30483410570712222   -0.42856104237829429
LJ  0.45840546658023273   0.02082486268756047   0.023944902141452132
LJ  -0.24768078756488052   -0.3144927920632471   0.39986396056370255
LJ  0.49008726419362236   0.27032087394552445   -0.19416602581063974
LJ  0.27239720142044482   0.34390668461536306   0.17781303536779769
LJ  -0.23669278198278632   -0.11641146069008021   0.28657036819974141
LJ  0.39065661676605773   0.39457505698585149   -0.033439964543607696
LJ  -0.43369764502458147   -0.093943177475339229   -0.43363928146678427
LJ  0.048407603355943601   -0.058139491134347923   -0.041859836599973214
LJ  0.059315927798076595   0.44236806644459842   0.46041216449602568
LJ  -0.17746402725398869   -0.021734101316689056   -0.19325159659534932
LJ  -0.066079142126676663   0.22826248717305087   -0.45720805172720763
LJ  -0.072131668374270125   0.0054206370638749382   0.31789519073777939
LJ  0.24992347083481956   0.49154681905759146   0.31092137532147973
LJ  -0.13183090513617371   -0.45530124156786711   -0.27699806537735661
LJ  -0.40827998893247469   0.060365272493276827   0.20973763914203697
LJ  -0.077636469948563894   0.2647157330945622   0.11016333927238657
LJ  -0.26631179576068104   -0.028927681559044103   -0.34854598167276923
LJ  0.12625600720489094   -0.16328541034048491   0.35658345204739145
LJ  -0.18415454342806686   0.38155478982753011   -0.054698262091145484
LJ  0.24455875538968638   0.051991606962596575   0.39926407154377042
LJ  -0.37610058519987716   0.38096855356934672   -0.4801169547367905
LJ  0.17758224507267309   -0.016096605252350064   0.13883086510796322
LJ  0.46732089516548614   0.45526330591682879   -0.34254973867790028
LJ  0.38656959421909604   -0.17340427345926027   -0.25704319193725644
LJ  0.2243861901536153   -0.48085001426152779   -0.0033805181300453012
LJ  -0.30584370682456641   -0.48666954745743418   0.27598672851395395
LJ  0.24398635621605666   0.012617167880929238   -0.061633616039242826
LJ  0.067632313803262969   0.40155937654839136   0.04384664613318532
LJ  0.069215469641416311   0.14255380750472013   0.41712440940809109
LJ  -0.42968984281407308   0.092608124062999481   0.42207154481448733
LJ  -0.31235369198750101   -0.44744454516916865   -0.15571504082429846
LJ  -0.43437603889065568   -0.13404415166785788   0.34900905431406504
LJ  0.067731038395777529   0.15917863838059595   0.21289937065611333
LJ  0.36879278754657707   -0.34070759163774522   0.068092370883303582
LJ  -0.40881388962614545   0.087283269921865442   -0.2177535154178889
LJ  0.14565764593068631   0.24868896629003445   -0.42933813603660076
LJ  -0.25728967843610095   0.20339979968999131   0.4540766256016156
LJ  -0.14853247248553306   -0.31314273887057525   -0.020193773476602676
LJ  0.42563940407339085   -0.15049181135273781   0.14481447359594857
LJ  -0.095369333140844947   -0.40333377965207057   0.49759298976136584
LJ  0.4912538523510564   0.23131675951842134   0.052113252884023471
LJ  -0.066970618613519176   0.21683515261613875   -0.089030552953144132
LJ  -0.2692224749969172   0.39499242496906389   -0.26683414129596622
LJ  0.35673116307724839   0.15933321778774628   -0.074457212060342975
LJ  0.0048600165187381254   -0.12100726202518448   -0.22916550766412905
LJ  0.11077052629784617   -0.010917352997424946   -0.45509097305294233
LJ  -0.16991783362967181   0.19483977459958937   -0.29515992759393572
LJ  0.28583926914364161   0.20057074811517883   -0.27121623981787774
LJ  -0.41341255036320762   -0.28580485478220063   0.23855572470969866
LJ  -0.11781166662356818   -0.45139958196094443   0.12340139826048738
LJ  0.0467968773122594   0.068610873012256088   -0.26892658355077048
LJ  0.40363233808154725   0.031937386305650843   -0.2324588588133561
LJ  -0.38088661191806467   -0.42526186603536886   0.079471744812820294
LJ  -0.33447787957406772   0.070378496391964154   0.014462781258078192
LJ  0.042376921992556257   -0.26791521599909718   -0.087418630701148345
LJ  -0.28686772526580839   -0.42290373789968272   -0.40705258516048809
LJ  -0.27545156290891626   0.3374011753345717   0.12591463438865075
LJ  -0.32200682313150208   0.25509637864828966   -0.14468766771819103
LJ  0.062444531422437909   -0.38209757439544634   0.069794134604632657
LJ  0.22714366947757642   -0.34845419215810397   -0.12805370499653651
LJ  -0.42704685069081938   -0.1065854211671739   -0.19113207413605754
LJ  0.38224047674660233   0.21622477613502042   0.32310749263139155
LJ  -0.42070376829190886   -0.2742349942629233   -0.044980140786440047
LJ  -0.40457552277055159   0.1819108598172586   -0.39072645739322159
LJ  0.2723687467738376   -0.48086068042981034   -0.48512289631861888
LJ  -0.44922287711747111   -0.3340272156875313   -0.286078738139384
LJ  0.24480963579267245   -0.17102921799579793   -0.45368703700925667
LJ  -0.22413107397789914   -0.24481519759897705   -0.20549413926373805
LJ  0.48479148889457763   0.41744584226518616   0.14620927795598618
LJ  0.41819297536051564   0.41371692032056195   0.39849777914851225
LJ  0.34815319639285913   -0.30106238049704459   0.44808802507096485
LJ  -0.38694952489003881   -0.1005356783998539   0.076465945765732138
LJ  -0.25739514816587927   -0.21505275886739672   -0.40396734894883379
LJ  -0.15771198394912908   -0.11294214926178313   0.0072887097502431783
LJ  -0.085541299600334561   0.47000930005689123   0.30283270349040536
