108
#Comment!
LJ  -0.49979698309914916   0.1885476772809746   0.15638629248389535
LJ  0.21727009775938586   -0.16297869312182309   0.25352636458989264
LJ  -0.40283230461831637   -0.048040905634198112   -0.27880728107202524
LJ  0.013354094200627428   -0.4370629869162474   -0.15516238985519867
LJ  0.107719604366784   0.49516802140443733   -0.20651076350602074
LJ  -0.12209848784016886   0.49805808955597541   -0.21702442833546043
LJ  -0.21563458559741033   -0.40450264996282942   -0.20898755851108028
LJ  0.35365193948246026   0.14648045691888731   0.10477022188475719
LJ  0.14580822338831337   0.29928134577041432   -0.20011407386285951
LJ  -0.20150468346516792   0.19863700398298889   0.32640365371025953
LJ  0.40721922591431142   0.33002034426324933   -0.41751288265578917
LJ  -0.02829442500962559   0.30752482941210524   -0.4947125143060348
LJ  0.048181021320697563   -0.49147791478862218   -0.26961187031784739
LJ  -0.42406774018881011   -0.43534392440520314   0.10073110365291187
LJ  0.015051070127829053   0.29727932368484122   0.18303829697482443
LJ  -0.089305405105198618   0.39929633613607307   0.47849343549948703
LJ  0.23172218687016019   -0.2858433167067238   -0.47265082864260932
LJ  -0.22502999855188804   0.48155586206479822   0.057577913285078344
LJ  -0.3838109587945211   -0.01575038407125955   0.22231389882927616
LJ  0.10977899536121875   -0.3510610386948011   0.22721285979652661
LJ  -0.29471742845356996   -0.40280085728809606   -0.17549446661621884
LJ  -0.1460317002749808   -0.14952791306079172   -0.31360419878454454
LJ  -0.0015215823503898164   0.43462362924822251   -0.14001392127389417
LJ  -0.43856163310552954   0.00070678696665948807   0.052770105597061967
LJ  -0.37811998025419946   -0.34206257792885236   0.47799283893551808
LJ  0.20284542306119088   0.15625944591058968   0.37803771293704264
LJ  -0.12707421316387477   -0.17886166202575263   0.42253361210607082
LJ  0.16657624878731378   -0.30340080169843153   0.1534353065703549
LJ  -0.22650088563379303   -0.36885483204895075   -0.39284395299526675
LJ  -0.34515272470266367   -0.16031872816948542   0.11888399358385671
LJ  0.26988586575630696   0.49520864411100035   -0.27353293317170707
LJ  0.40982598346430227   -0.30711017140018232   0.17181092777957607
LJ  0.1112433079829092   -0.20462308755919398   0.2898749340285901
LJ  -0.41742242111435157   0.03374112504725791   0.47705788772787333
LJ  -0.20962406053558821   -0.021160104864271025   -0.085495042957120349
LJ  0.10427898204007265   -0.081387324667401409   -0.42858711090724899
LJ  -0.24662328885941923   0.14706521552009819   -0.2853014072191275
LJ  0.27597327065315236   0.19649247209422588   0.27520348871973366
LJ  0.19546162345946438   0.31767068205545224   0.43052258272826577
LJ  -0.0027763304250264368   0.081113932261014945   -0.20651601055745117
LJ  0.41079483717194565   -0.16229369484782782   -0.14897804172206022
LJ  -0.26175194174301314   0.08297746717684748   0.4533773964030412
LJ  0.35591358057498507   -0.01743190893115458   0.35224301492949533
LJ  0.49439748943329365   0.48384292072710938   -0.046543633776629983
LJ  0.31420506227356765   0.29443099319714539   0.1322665476782855
LJ  -0.29036229732973851   -0.060314315879220856   0.41606521621441916
LJ  -0.331181868604218   -0.28861046243856547   0.11739335456678611
LJ  0.031688697391027691   -0.42167833274912364   -0.31951016184267772
LJ  -0.16434945706922863   -0.30348331913689591   0.29458692236716494
LJ  -0.30332004508678567   -0.43150140517620394   -0.2465102574762138
LJ  0.10375845272305229   -0.011400831125757857   0.081737144704143519
LJ  -0.44567593468918049   0.39055027072379406   0.19928432660439385
LJ  -0.40854456545203932   -0.43372931556633626   -0.35193356067467491
LJ  0.29013119716772728   0.024425480669595011   -0.23803825083239119
LJ  0.34507203497541611   0.24535532776272381   0.078454509833596725
LJ  0.43878962959922119   0.35679702634213928   -0.014364442143959363
LJ  0.27060555269751063   0.15110116351972533   -0.4017421175351425
LJ  0.36784649943177561   -0.29926224164371135   -0.37348518543566761
LJ  0.42966228732501432   0.076783025148828149   0.15992835368425687
LJ  -0.031226275680554302   0.055657104081237273   -0.13456082383422679
LJ  0.30072558510965669   0.32530451713500352   -0.46171186057810243
LJ  0.36231901719748999   0.47720100333498239   0.26200201568275999
LJ  -0.20467744260663068   -0.44451698295823239   -0.27478911483561258
LJ  0.14049374713171098   0.11152941414208682   0.31798538679576727
LJ  -0.070960605926642939   -0.19658188886181224   -0.11814814178244862
LJ  0.22263869963153715   -0.45877254818790947   0.48959314626558803
LJ  -0.24698718628580926   -0.24644941948874305   0.24540668080774469
LJ  0.0033623193618252303   0.067124026567223022   0.3291552307808967
LJ  -0.24256331825340249   -0.16777148051724655   0.48464695144545106
LJ  0.10421926009473549   0.21166323706160015   0.21908417598925936
LJ  -0.07672308477836097   -0.13014850718992566   0.21546420437737174
LJ  -0.2203550441003832   -0.30471979339512251   -0.24241987628064979
LJ  -0.34706842435742419   0.22639445788842116   0.12510310182018708
LJ  -0.39320084282522316   -0.27356225067511281   0.42667293920921995
LJ  0.38043936482119456   0.48694646111095841   0.41496966116438827
LJ  0.37849355869868956   0.058322233468604982   0.26308782939929043
LJ  -0.32758059836035969   -0.41695493577935006   -0.35554317862827417
LJ  0.32007170430430848   -0.23066426734894921   -0.17698416918651594
LJ  -0.055020120809566711   0.28634973669834496   0.14338862468551236
LJ  -0.36347852803254288   0.46602105767184626   -0.23887940673097446
LJ  -0.15502445618795146   0.27955613422088527   0.15825795071277537
LJ  -0.39536428962158804   -0.030459854112136423   0.45167469302832464
LJ  0.3906143635222325   -0.38743772357287581   0.078919381357637958
LJ  0.11769090671704092   -0.19673098523368926   -0.46402833950711359
LJ  -0.30155569444464198   0.45763269200952111   -0.44312750742066109
LJ  0.4593882462297143   0.03139452075758592   -0.49130303676342391
LJ  0.055608130460497826   -0.036774527120194508   -0.14077496854614596
LJ  -0.14677328210288162   0.076883580739903618   0.34639249214650891
LJ  0.14463937282069284   -0.044575600106314589   -0.31099457505937911
LJ  -0.32567927012341774   0.34215088172104802   -0.017949699101955711
LJ  0.021793090531908404   0.10190261987043957   -0.48851152598305619
LJ  0.17091468927176054   0.45246654517826629   -0.35987958164339323
LJ  -0.1952546112621438   0.041270322338864317   0.1548225691763423
LJ  -0.0098300478561370985   -0.44907670718957354   -0.05151447925328323
LJ  0.28395426075559754   -0.42658959924887369   -0.3628124817091517
LJ  0.39328030851763729   0.051200010756230263   -0.44696695505644246
LJ  -0.1868383546069502   -0.42432436017224007   0.23974011207151177
LJ  0.26498153202157104   0.38328702501329232   -0.0092982784040809632
LJ  0.34415199574250344   -0.04504405287557086   0.22140373052286644
LJ  0.094119850938079216   -0.23164078502973481   0.14003486149888386
LJ  0.25281112566526182   -0.056883594191140557   -0.36221543980485338
LJ  -0.13162241702340033   0.2744750289789139   -0.088393851898259462
LJ  0.35157650763810966   -0.14118998671810412   0.090590319917500495
LJ  0.43054751236956162   0.25924910762925518   0.086087612050381568
LJ  0.24725313008589506   0.42457560835294228   0.10397050459284327
LJ  -0.40626094212503566   -0.1901531346377506   0.44542935144592077
LJ  0.39632676462787614   -0.11255297773281299   0.024393703403730288
LJ  0.094605240061357662   0.16589943736737389   -0.21779487082481053
