108
#Comment!
LJ  0.49724279471272503   -0.49857253535084822   0.49158255068823314
LJ  -0.34670288072706373   -0.31609744145854118   -0.49281192164288579
LJ  -0.49831414596291895   -0.33284183923259275   -0.31801128355468739
LJ  -0.3301908562796404   -0.49878605639424639   -0.32953632328366966
LJ  -0.16544477032659682   -0.49049229220464285   0.48374647613204774
LJ  -0.0060006125775383563   -0.33323376719224512   0.49707005867678417
LJ  -0.17003784197901176   -0.32930542814548808   -0.35187588262399844
LJ  -0.012634866412380229   -0.49316567153645746   -0.34601833926080672
LJ  0.17792333458187826   0.49331942003283902   -0.48815277177015254
LJ  0.32221850684607584   -0.33498048719610279   -0.49300293934572192
LJ  0.15554600850941167   -0.33901630799587096   -0.34329339960662886
LJ  0.31858426519643152   0.49947862147939098   -0.32863225286695602
LJ  0.48177076511235994   -0.172919314007738   -0.47859213991703609
LJ  -0.34960967990243685   -0.017687319882732325   0.49435231191072632
LJ  -0.4858910290077636   0.017329787237376104   -0.31707396529843768
LJ  -0.34790788138747319   -0.14991908304770118   -0.32565954093577326
LJ  -0.16451465808084817   -0.16344149187671261   -0.48568898844598257
LJ  0.0042263433762018601   0.010562829562770977   0.48401605531836445
LJ  -0.15668769360341572   0.0051479063476585346   -0.33660058589453135
LJ  0.012855473936537623   -0.15310398266427527   -0.3323395104486247
LJ  0.14952041126522975   -0.16941664401281176   0.48122972350499926
LJ  0.33000308133584788   0.0029370687365266762   -0.47397649857820512
LJ  0.15396950119820085   0.0040648442964504369   -0.33355998970602047
LJ  0.31230829688549461   -0.15991457340531889   -0.31516037358218379
LJ  -0.49206958522791827   0.15224429709546436   0.49563399325131136
LJ  -0.32569796222406006   0.34200064497604887   0.49155763477471315
LJ  -0.49766063064706334   0.35663289108493984   -0.34828620207113897
LJ  -0.32786684859374915   0.16619736854783404   -0.33145588724457709
LJ  -0.17396260118809351   0.17718278216543573   -0.49477180339019811
LJ  0.0094374486015372187   0.3259999906068341   -0.49989302635971727
LJ  -0.17696885829130646   0.33683222831012188   -0.34555928424724081
LJ  0.012709966900923844   0.17124801967824391   -0.34926504290180593
LJ  0.16999954775344706   0.18492941797354207   0.48769941023088681
LJ  0.34516608627820777   0.3353486531925407   -0.48664505320178741
LJ  0.18350809604486676   0.3278572618919372   -0.32928828442112179
LJ  0.3254925420117819   0.16014567759023624   -0.32760473762252806
LJ  -0.49637979983165326   0.48070871644035801   -0.16666267989272157
LJ  -0.32912013511043758   -0.33681983129899051   -0.17845935293477366
LJ  -0.49529401691620367   -0.34300548065504743   -0.014696327659409873
LJ  -0.30736259296985824   -0.49736051760193456   -0.0053363962503207452
LJ  -0.17049054344056597   0.4936367113788977   -0.18104397182595355
LJ  -0.015810146086348828   -0.34085365262813994   -0.17741280572642629
LJ  -0.17560196318490134   -0.33312607194241778   -0.003070332406261951
LJ  0.0078508403673746372   0.48978904908727411   0.0071289137746909752
LJ  0.15590175393625799   0.49825502250983178   -0.17532485467494596
LJ  0.32140889072952245   -0.34859477785341153   -0.17517295353382381
LJ  0.1724343396447271   -0.30735698582317883   0.0035690910905693588
LJ  0.33589028199584126   -0.48924288164006569   0.015616755804511837
LJ  -0.49192818210329758   -0.15693626550263684   -0.15573111166786241
LJ  -0.31361876321976967   -0.0050933553741668849   -0.1735239989433309
LJ  -0.48732275421321652   0.0049136769376547824   -0.018861699222133627
LJ  -0.34052993693111111   -0.17768087525634271   -0.0072931553416067827
LJ  -0.1614322351240059   -0.17329200370997247   -0.16299803755710657
LJ  -0.0022737052559235723   0.032482518453134976   -0.17929637021939898
LJ  -0.16557490035044639   -0.0051554835098197114   -0.0058921059724492981
LJ  -0.00060361883786611275   -0.17703206975078153   -0.0052288182488967223
LJ  0.16084949325588915   -0.15958914972463784   -0.17272309277815831
LJ  0.32123977931414754   0.010356590131354834   -0.16711516491188833
LJ  0.15704315107953659   -0.0044978074617231627   0.012529931638058925
LJ  0.35719077067572014   -0.16910008520330108   -0.0074060339871420602
LJ  0.49517839894068449   0.18408959503564334   -0.17229678093796788
LJ  -0.33296074964770095   0.31509741328523494   -0.17373366516965963
LJ  -0.48684885429296354   0.3376811686114306   0.017844265952405746
LJ  -0.34542664141625318   0.16741978542239544   -0.011936477882938779
LJ  -0.16138653057516203   0.15915371252067279   -0.17598531332351333
LJ  0.002948756911269531   0.33802588398619454   -0.18018697357075064
LJ  -0.14202922521257752   0.32812180412932651   -0.028126641576388854
LJ  0.0043256153734165899   0.15098040535347765   0.0092532775180244973
LJ  0.16401686838385962   0.19621791339139835   -0.15325976066679195
LJ  0.32957989911053853   0.34849699548942831   -0.13909309683346749
LJ  0.15826531859335358   0.32485622110515683   0.015780030051171786
LJ  0.33779306345844501   0.15440054475074694   0.0097465294169111812
LJ  -0.47250269082949137   -0.49762781094358272   0.16807225789949937
LJ  -0.34207928846095143   -0.33595031986552482   0.16644524899528193
LJ  -0.49843515603608918   -0.32206247653628323   0.35292722709367585
LJ  -0.32405756105470263   -0.48426587980800667   0.33726195435511874
LJ  -0.1578792911446302   0.48275274529928786   0.17717915087480082
LJ  -0.0090512812040726767   -0.34479836822740711   0.15937094044587355
LJ  -0.1626966705386165   -0.33641496266752585   0.32166365852436668
LJ  0.0078848388692307567   0.49184689144881094   0.32724318701757976
LJ  0.17832330663720802   -0.49034299425861438   0.15699950154558942
LJ  0.33589535889691763   -0.30646223608994122   0.17892039286442141
LJ  0.16657274195495814   -0.35546727600394312   0.35190172431572814
LJ  0.33438369991249051   -0.48657780715846471   0.31439837691831185
LJ  -0.49809677916665573   -0.18030814462560749   0.17234231880638329
LJ  -0.33348779315145827   -0.0075547926087429452   0.15072359043208336
LJ  0.49586479103809311   -0.016269526371657496   0.33496833824763794
LJ  -0.329824840939825   -0.16793202022095102   0.34623729472465314
LJ  -0.18504412685561578   -0.17188600289946407   0.16020772726815749
LJ  -0.0075161678389736464   0.010991231637330345   0.1768514424855078
LJ  -0.16825851841511016   0.0054998434221424086   0.34001583028052146
LJ  -0.01978205089458936   -0.15779945840734899   0.33335905677547817
LJ  0.15415328709634948   -0.17496516725004604   0.20401125269209941
LJ  0.33393395738274706   -0.010358545899462961   0.16285611688005233
LJ  0.18330910477159604   -0.0033813641508656646   0.35390863907863801
LJ  0.32676981908138503   -0.16143409211944904   0.34351308683754544
LJ  -0.48805893162581915   0.13911567964507079   0.16137603962190106
LJ  -0.32865258263111607   0.32604155460269302   0.17061046896185317
LJ  0.49947815587469491   0.31975047173073468   0.32259687203840309
LJ  -0.33370190778190556   0.1640056082469038   0.33399332606515519
LJ  -0.17310051606361723   0.16004375984924785   0.15777661687880523
LJ  -0.0091647976475500489   0.32234291373341462   0.17278428982434579
LJ  -0.17749877581422277   0.3299732923780202   0.33065524655000977
LJ  -0.011994620535316991   0.17222653475151603   0.33891284933039417
LJ  0.1798471797187868   0.16261023208084527   0.1799870196036821
LJ  0.3393543957241541   0.34221436971232577   0.16321802624052734
LJ  0.1566431163802525   0.32547986422374403   0.3144725885717003
LJ  0.34422960014590298   0.15045234502126331   0.33450533314390379
