108
#Comment!
LJ  -0.27731577369180616   0.19758692939135461   -0.12769794903771173
LJ  0.1172725726533502   0.21044504760525024   -0.25633075988732723
LJ  0.20333557510868483   -0.26855566051590829   -0.33499335062007418
LJ  -0.1958015610626018   0.036867155083606648   0.46844446053218908
LJ  -0.26516956006036119   -0.46336652610199414   0.20169549497166073
LJ  0.44865264372999619   -0.47723243664491233   0.27780213075188509
LJ  0.024737315276157475   -0.47528302474662304   0.28044401937227215
LJ  0.2211117676260419   0.13550930556328247   -0.24802372294477729
LJ  -0.2900101182110692   0.458764907158274   0.26572407936446379
LJ  0.42352054934980438   0.038827840470308669   0.17355096350134006
LJ  -0.39855844196802248   -0.019473008108390453   -0.066220471119175381
LJ  -0.43787681691736097   -0.31267636170527258   -0.35142373307336477
LJ  0.1937700819289345   -0.3347764034911353   0.16330323623099807
LJ  0.30915138641172868   -0.25429123150944022   0.16209296701116213
LJ  0.31516504186947869   0.097161289104700829   -0.44851561597180717
LJ  -0.25791235137487689   0.28343842144491971   -0.25927410393907907
LJ  0.10248465953183759   -0.49136963208054468   0.2170128576712865
LJ  0.29260344467198307   -0.47655608010224226   -0.19582051880964976
LJ  -0.053121012321925024   0.021545070990500587   -0.19164578341149877
LJ  -0.37738861867579343   -0.079463140309813801   0.41432122801829968
LJ  -0.024489039341805661   0.11536549288209028   -0.49154030721803482
LJ  0.43665711567899174   0.42284621697629304   0.29646353299527561
LJ  -0.10989617604167055   0.17671190663558783   -0.22936930870065775
LJ  0.3830141703713541   -0.2074621995426526   -0.40735184628610949
LJ  0.15324632667670693   -0.20707845474172962   -0.29540400944386214
LJ  -0.18011804019282485   -0.30873561556557899   0.41733215754954778
LJ  0.28316179509773826   -0.41867149711643781   0.13349974317080179
LJ  -0.45457398640869079   0.23685954400607701   0.35862873975823306
LJ  0.46631280520811458   0.0038767285649621321   0.095159716616945375
LJ  0.24134065881267433   0.44155841678984992   0.44692067164235838
LJ  -0.47368179452257797   0.19856324066064018   -0.043718222088653079
LJ  -0.083248295062214733   -0.33474016224207903   -0.45889054943809454
LJ  0.17595608720356062   0.19249626364635514   0.38553809670790262
LJ  -0.39411125186049517   0.12286895789721942   -0.023004052269538371
LJ  -0.15971451710191198   0.18624069744017915   0.28664138789330845
LJ  0.33751053580809898   -0.26763535531460902   0.25357434819433111
LJ  -0.25663720608536417   0.47276786578487523   -0.41049305006945025
LJ  -0.053953501509324132   -0.020800760972617082   -0.25376930073006593
LJ  0.45378848775093211   0.10123192014214732   -0.043097052076966631
LJ  0.051847307955216242   0.35896200069821921   -0.26674919581393336
LJ  -0.09573614042932492   0.32515232806620087   0.1613724625043767
LJ  -0.24324415919076983   -0.48347152087683914   0.34318849546996744
LJ  -0.10796283849120732   -0.069736289124802855   0.015596733545351359
LJ  0.46250879577662085   -0.45204649049296419   0.45235073811039922
LJ  -0.18797457527855799   -0.47485511479305903   -0.3596116348221074
LJ  0.39816414733089439   -0.14690562853037933   -0.31286484928399216
LJ  0.33031010043110176   -0.23156954213197437   -0.33759507923402432
LJ  -0.113270101043892   0.069451531184991616   0.0018189392072151707
LJ  0.27207264677710397   0.12144763183275858   -0.34195140117106843
LJ  -0.11617347183958163   -0.17563042290633743   -0.053859711767923889
LJ  -0.079531070950450949   -0.10530269650259694   0.1386331928493352
LJ  -0.33151603760848025   0.46323960861735364   -0.32492587456652289
LJ  0.21198738983343959   -0.27659106674863371   0.34651230184633253
LJ  -0.064203368243710021   0.095250671032367673   -0.26475778588466187
LJ  0.22738212865601146   0.31870607162940062   -0.20593039937917421
LJ  -0.46468273463731619   -0.24790310539468502   0.1584109408929007
LJ  -0.48104641520549069   -0.43486739096436683   -0.34246480997496787
LJ  -0.044103359142369972   -0.069680039480563574   -0.13768306720420492
LJ  0.14221687043660178   -0.29911383098058936   0.28533219064063758
LJ  -0.44938399968777792   -0.4502092905994603   0.047480492502258498
LJ  0.3592606421601543   -0.31955497649902886   -0.40902749538913874
LJ  -0.33871118780261372   0.043103229366161316   -0.05865844947656107
LJ  0.17562070656872794   0.088703480898748438   -0.34395432391001551
LJ  0.17959666353724488   -0.46542897965915941   0.49316025230867699
LJ  0.10634128877013424   0.17651637721850047   0.024436833275395926
LJ  -0.031575233501936542   -0.29531023366808873   0.11271420482698051
LJ  -0.16518385832185226   0.20365547970179557   -0.16951648882197737
LJ  -0.27159766126256596   0.39610032164525688   -0.43264173624601604
LJ  0.0042754819605122542   0.098885233926191862   0.18275912379423698
LJ  0.26941811431173363   -0.45740176626346429   0.305521128746647
LJ  0.026614611045896266   -0.32085611195215025   0.22624303789669503
LJ  0.020855409914001692   0.14370292186849984   -0.33514320225738803
LJ  0.26123702018691403   -0.39015689685868471   -0.21653355749894052
LJ  -0.37893264708511898   0.32829756813998429   -0.43833185179084411
LJ  0.017271707472116829   0.43107219604984021   0.076781495564758107
LJ  0.17928125464498965   0.14473598725208114   0.31305752596305614
LJ  0.11403882528137996   0.3015782118269848   -0.046564388736872422
LJ  0.041585265845444107   0.33948662739482982   -0.34306148411080772
LJ  0.30684809999936774   0.29473239758601999   -0.1794401971752585
LJ  0.34797944780561063   -0.057348826411912412   0.33325502408709406
LJ  0.25730157066380782   -0.47762920154773547   0.46885922277350411
LJ  -0.13141799895337497   0.43405346599651745   0.123113195706989
LJ  -0.25013127332838181   -0.28204192742600315   0.28434412733847569
LJ  -0.38081052314388097   0.20685895445080271   -0.48095900464518831
LJ  -0.34303237437020739   0.3790100540226054   -0.39287600017328722
LJ  0.15563504197233974   0.34625351084196443   0.077614063002632419
LJ  0.25167222689939334   0.44960579755642788   0.18208470965961598
LJ  0.38122960844492232   -0.087990766177413512   0.48022855234849315
LJ  0.27817043781768536   -0.082650348887506858   -0.26774186479446627
LJ  0.24068993569189884   -0.015460305980265704   -0.35548255571248721
LJ  -0.10013498119677965   -0.46565224811408557   0.30889091333036223
LJ  0.16029451947376075   -0.29162549705505175   -0.48104732186964161
LJ  -0.025184773628662858   0.084645509273756941   -0.38818138232366101
LJ  0.13978663618786527   0.25842739202839404   0.088385048250641085
LJ  -0.075212583367447211   0.061281824019888104   0.20927438776571869
LJ  0.16086258138917819   0.16145267968496474   -0.43394844865791404
LJ  0.43429591663466366   -0.11035953911506843   -0.41337010316418465
LJ  -0.14628946547459085   0.10410245380921428   0.43734685978498877
LJ  -0.42082289449242716   -0.27889494593548209   -0.13563962729553461
LJ  0.016983268916730493   0.32040464608045777   -0.0012703132904993684
LJ  -0.20734828088007956   0.022590823528245287   -0.31469083207547849
LJ  0.15559415866552251   -0.35838339484617521   0.39361570431260701
LJ  0.4915083551500497   0.38033519942615451   -0.29467305184480563
LJ  -0.38277480664065966   0.25734233815712448   -0.31084171430309659
LJ  0.036122760235743803   0.24469470400357266   0.039597508743837294
LJ  0.46989155704746749   -0.30798064824552829   0.23719770803981416
LJ  -0.056602181812377042   -0.45785856685585968   0.23172156671874433
LJ  0.008623536759056959   -0.24673728524431573   -0.0504756020306096
